19764 22052
19490 20374
22067 22188
20601 21134
20387 21752
21058 20449
21585 20155
20230 21329
20409 20549
21758 20228
22126 22214
20931 20736
20490 22224
21603 21645
21967 19794
19792 21119
20354 21900
20155 21996
19685 20893
22040 21513
20157 21565
19669 20689
20625 21296
19527 22187
20054 22040
20627 21612
21539 22207
20001 21172
19558 20716
20727 22113
20330 22168
20500 21172
19877 19984
20451 21518
19803 20431
20386 21945
20399 21427
21002 21487
21038 21317
20816 22146
21616 22173
20696 21554
20867 22137
20283 20503
21327 20916
20445 21329
21329 22154
19536 22198
19566 21216
20026 21570
19851 20854
20922 21886
21962 21122
20278 21042
19737 20493
21758 19545
20001 20387
20775 21825
21856 19682
20500 21295
21388 20768
22212 22219
20661 21572
19918 21366
20983 21616
20775 21001
19611 20307
19649 21110
20324 20796
20526 21313
20276 20306
20276 21645
20979 20346
21186 22146
20283 20652
20771 20870
19544 21560
20570 21767
19528 20917
21169 21354
20079 21329
19843 22040
20192 21829
20892 22249
19677 19806
20014 21149
20630 21329
19870 20171
20514 21835
20560 21564
20306 21027
21825 21867
19737 20811
20276 22128
19580 21891
19771 21210
22213 21465
19536 21589
21024 21317
19792 21568
19602 20249
20315 21072
20327 21444
21210 22128
19682 22168
19649 19580
19484 20054
20560 22034
20548 20475
19572 21366
19624 19970
20777 21829
20568 21329
20743 22044
20892 22095
19572 20167
20261 20387
22033 20659
21279 21538
21469 21839
21962 19475
19682 21169
20386 21267
19900 20457
20775 21513
19911 20103
19608 21730
19924 20333
19704 20983
19823 20296
21856 20625
19604 19914
20892 21382
20652 20720
20892 21172
19930 21867
20514 20974
19914 21790
21009 21858
19526 22204
20500 21129
20918 21773
20763 19556
19782 20445
21107 19618
20870 21860
19687 21513
19737 20730
19630 20110
22213 20067
20196 22174
21186 19900
19877 20698
20529 20698
19526 19914
20178 20766
19691 20986
19904 22249
21221 22214
20405 21098
19512 19792
19605 21900
19737 21009
21107 19812
22213 19770
21402 22118
19685 20459
20407 19829
20890 22194
21248 20459
20652 22034
21962 20371
19536 21470
19870 21001
21310 21612
20940 20993
20560 21965
19782 20208
20024 21322
20196 22100
19530 19560
20573 21830
21248 21276
19763 20344
20875 21442
21102 21572
19903 19958
20892 21295
20315 21965
20278 21513
21570 22003
21058 20387
20078 21381
19903 20922
21117 21835
20316 20680
22118 21442
20570 20587
20215 19637
19630 20390
21302 21577
21210 21586
20461 21996
20549 21538
21318 22013
19749 20929
19661 20857
19582 21329
20010 20155
19782 20315
21210 21220
20176 20962
20138 21210
20155 20870
21191 21821
19685 20624
19900 21143
21825 21882
19517 21220
20548 20417
20652 21656
21962 19606
19605 22168
21060 20018
20116 20696
20404 22116
21571 20103
19792 20313
19904 20715
20491 20313
19682 20180
19558 20796
20689 21616
21232 21329
20500 21632
20368 20500
20270 20983
20891 21210
21424 22181
20431 21302
19536 21412
20014 20771
21276 21677
21058 21216
21248 20055
20227 21324
19630 21987
19830 21616
20407 22193
21377 21561
19918 20688
20570 20630
20537 21096
20730 21558
20276 21352
19682 21210
21317 21465
20657 21540
19748 20249
20775 21638
19952 20712
20500 20616
19823 20689
19523 22214
19868 21616
20024 20775
19687 19722
20445 21412
20566 21519
21377 19844
22040 20343
20327 19792
20107 20248
20548 20371
19516 19947
19608 21616
19877 20707
20085 20276
20537 21313
21962 21375
19838 20746
19737 20303
19572 19772
20165 20720
20026 21548
21169 22102
20155 22146
19526 21570
19984 20075
21887 21469
19685 20596
21210 21476
20627 20993
19677 19918
21962 21797
21143 21891
20777 21584
20548 19618
20983 21805
20699 19745
19894 20431
19536 20159
19566 20475
19710 21210
21210 21465
20688 21210
21326 21329
19756 21169
19695 20384
20215 22253
20459 20923
19904 20799
21060 21612
20147 21316
19661 19805
20405 22067
20296 20500
19737 21463
20560 20330
19685 20689
22184 19688
19900 21745
21271 21024
20764 20371
20627 20730
20929 22132
21412 21506
19943 21065
21327 22045
19903 21636
22065 22107
19779 20296
20764 21734
20549 21663
19878 21778
19900 21028
19545 20516
19737 19682
21356 22082
21579 21781
19870 20493
20589 21645
20276 20823
20523 21137
20417 21535
20125 21329
19495 21104
20891 22168
19529 20445
21513 22125
21210 21375
19572 20790
20160 20578
20404 21073
19481 20709
19701 20004
19880 21859
22184 20320
21329 22230
21898 20545
21648 20657
19625 19924
20430 21104
19779 20786
19717 20431
20252 21329
20601 21825
19660 20974
20549 20730
19847 21267
20246 21286
20529 20549
19976 22128
19690 19710
19990 20875
20917 21825
20343 21836
20465 19540
19772 21210
21825 21936
21616 22204
19572 20922
20968 21329
21793 21920
20811 22040
20186 21210
20307 21317
21084 21835
20465 19529
19847 21476
20220 22214
20610 20834
20627 21973
22040 21465
20276 21684
19556 20775
20195 20500
19904 19683
19847 20812
19749 20802
20469 20730
19606 19629
19979 20627
19685 20203
20220 20688
20627 21424
20491 21996
22015 21995
20054 22043
19779 20625
21554 21855
19676 19976
20407 21920
20761 21554
19690 21548
19700 20307
20322 22204
19946 20330
19792 20196
21000 19757
21248 19652
21248 19641
21055 21965
19536 19613
19605 19779
20684 21209
20493 21046
20258 20475
22213 20025
20777 21835
19999 21329
20007 20138
19611 21560
20991 21512
20900 19660
19512 20949
20155 21427
20549 21375
21210 21945
19630 21678
20322 21683
19618 21242
22047 20371
19642 21616
21071 22068
20675 21316
20905 21329
19988 21571
20709 20777
21743 21160
20500 20870
20787 21329
20371 22013
19654 20712
20850 21240
19492 21329
20404 22128
20833 21356
20308 20445
21247 22034
19502 21276
19705 21329
19794 20251
21062 21554
19760 19952
19657 20407
19979 22013
19510 20986
19685 21554
19829 21616
20064 21377
21962 21112
20892 21895
20159 21210
20945 21174
20909 22040
20196 20249
20834 21487
19618 20336
19779 20823
21187 21540
20892 21302
19873 21055
21945 22100
21540 22188
20709 21432
21962 21913
21247 21187
19490 21858
21962 19661
21011 21210
22125 21559
20870 22099
21253 22193
19900 20259
19536 20834
19779 21394
20228 21279
20234 20774
19914 21350
20155 21645
21831 22067
20272 22040
19523 20196
20815 21424
20351 21317
19766 21224
20720 22194
19475 21616
22184 21402
19737 21741
19757 20103
19900 22092
20774 22054
20660 20927
19682 20407
20716 21137
21840 20558
19976 20296
19873 20155
19491 20821
19749 19822
22184 22170
19819 21329
19903 21234
21064 21829
21174 21276
20167 20500
20500 21302
20537 20643
20616 21254
20267 21354
19725 21511
20028 20322
19649 21705
20549 20812
20675 22128
20597 21572
19816 21572
20358 20407
20451 20915
19593 21830
20023 20675
20526 21096
21496 21572
20597 21499
22081 21859
19491 21903
19525 20549
19649 21535
20835 21821
20196 20276
20983 22152
20999 21829
20276 20324
19976 21180
20891 22043
21073 21191
19613 22043
20103 21577
20061 21676
21329 21716
19688 20624
20404 21614
19572 21096
19904 19994
19884 20547
19803 21373
20031 22100
20576 21571
20359 20867
21962 19489
20917 20961
20684 20192
20500 21781
21962 20329
20892 20447
20064 21373
20127 21825
20276 21318
20216 20865
19683 20929
21377 21009
19700 21924
19615 20432
21001 22040
21761 21793
20987 21616
19847 21645
19566 19906
19783 20402
20122 21159
20658 21329
22213 21539
20031 20155
19895 21826
22015 20387
19851 20961
19536 20690
19979 20775
20763 19661
20689 21858
20589 21538
19683 20404
19611 19830
21962 20834
20155 22067
19490 20763
21276 21745
19843 20001
20249 20684
21377 20387
20207 21210
19803 20249
20267 19982
21210 20689
21632 20808
19766 22176
21322 22073
21186 20988
20328 21112
20698 22146
19900 20984
20068 21035
21560 21616
19605 21940
20802 22204
19608 20630
20744 21169
21200 21465
19816 22097
22040 19795
20823 20851
19982 21616
21856 21761
21504 21992
19930 20627
21356 22204
19847 20459
20500 21424
20514 21741
19685 21424
19476 19608
20916 21577
22213 19868
20299 20917
20997 21329
22184 20051
19868 20627
21296 20352
21470 21659
21462 20246
22128 22140
20357 20500
19770 20500
20560 19843
20431 20730
19628 22221
20853 21560
20363 21451
20051 21427
20892 22117
20061 20235
20892 20749
19528 22158
21616 21740
20315 20451
21002 21667
19904 19677
20643 22152
20696 21354
20867 21174
19851 21669
19590 21554
19782 20578
19996 19837
22146 22194
20459 20915
21513 22152
19739 21169
21247 20916
19572 22082
19903 20286
19572 20396
20980 21329
19979 21531
20815 20834
19903 19947
19563 20069
20500 21629
19970 22146
19900 19987
21318 20519
21147 21476
20494 21329
21645 22040
19904 20921
19823 19900
19918 22128
19489 19572
21247 21469
20276 20709
21969 21295
21432 21451
20500 21669
20401 21210
20469 21354
20023 20633
20669 21663
19890 20746
19903 20263
19615 20490
19860 22194
19984 21778
20402 22033
19909 20402
20721 21329
20684 20315
19701 20457
19904 20552
20771 20988
20567 21024
19536 19739
20754 21248
20768 21169
20652 21037
21548 21677
21547 20381
21517 20509
20890 21210
19792 21401
19485 19491
19683 21793
20216 20352
20276 21849
20276 22085
20267 21570
21234 22194
19491 19685
20812 21377
19661 19976
19711 21829
20258 21234
20684 20103
21470 19880
19751 20085
20823 21356
20892 19683
21333 21825
21058 22045
20407 21766
19904 21610
19526 21513
22064 20014
21504 22101
20811 21237
20945 21151
21248 21331
19601 21213
20276 21669
19630 20989
20312 21554
19894 21169
20155 20330
20870 21986
19895 19960
21210 22024
21058 20103
20892 20126
21248 20266
21960 20221
22090 21734
20669 21821
20326 19794
19606 21143
19545 22188
20221 21310
19489 21620
19959 21329
21978 20578
21225 21837
21945 22225
19737 19803
19536 21995
19628 22194
19604 21354
20689 21957
19476 21766
21248 21996
21732 20475
20082 20406
20766 21792
21962 20922
19645 21513
21571 22230
19798 21734
19556 20929
20155 21560
22081 21995
19572 19800
21060 21216
21894 20266
19996 20147
20802 22214
20371 20407
19606 22200
19537 19958
20456 20459
19649 20117
20500 22067
20491 20296
22213 19559
20677 21329
20232 19982
21302 21858
19685 21824
20627 21824
19536 21560
20276 21366
19512 20802
20080 19770
20031 22092
20407 21835
21250 20327
20965 21903
19526 21112
19676 20763
20283 21577
19782 20080
19899 21560
20330 20469
21046 22045
21648 19906
20995 22152
21102 20073
21758 20833
20500 21741
20404 20854
21354 21572
19577 20061
20330 20553
20689 21141
20126 22194
21112 21455
20407 21302
19880 21401
20327 20103
19960 20215
19737 22023
22184 20445
19900 21249
21962 20387
20404 21645
19589 19906
21825 22174
21513 21574
21169 21366
19563 21570
21388 21096
20465 21576
19572 19657
19572 20299
20102 21329
20699 19881
19904 21632
21000 20509
19977 20357
20644 21793
21329 21891
19851 19628
20892 20665
20865 22125
20549 21548
19904 20884
20510 20688
20249 22080
22081 22067
19904 21690
21993 19628
19685 20715
20500 20688
20103 21966
20387 21248
19870 19873
19685 19816
21373 22116
20342 21568
19685 21394
19904 20028
20560 21138
20665 21521
19904 19682
19766 21210
20974 21867
20536 20962
21122 21855
19630 19725
20694 22107
19484 20330
21276 21824
19792 20475
19903 20995
21560 22221
20056 21829
21577 22115
19585 21210
19500 20387
19588 21067
21174 21180
21538 21867
19545 20775
21836 22214
21060 22067
20802 21781
19606 19847
19904 20299
20306 20544
19661 20691
20514 21513
19870 21995
19900 21951
21210 21302
20993 22194
20500 22146
19823 20266
20670 21829
19661 22014
19911 22045
20242 22033
20500 22052
19737 21632
20270 21953
20560 22048
19792 22204
21213 21741
21271 20423
19904 20272
19737 20497
19915 22013
20500 20689
19976 22102
19536 20891
20264 22214
20864 21670
20196 21241
20125 21154
20563 21313
19890 19903
19903 19628
19918 20203
19625 22184
21210 21276
19873 22033
19904 20126
21254 21498
20407 21584
20883 21068
19523 21825
19611 20286
20230 19628
20578 21225
19613 20155
21648 21995
19536 20812
20864 22204
20404 21291
21892 20418
21960 21576
19695 20500
21830 22221
20625 22100
20286 20917
20915 21381
20689 22013
20283 21535
19526 20306
21962 21072
19521 21829
20319 20354
21507 20689
20514 21366
19906 21616
21002 21329
20322 22148
19566 21401
20153 21945
19870 21824
21856 20387
21115 21248
19823 19916
20549 20596
19580 21548
19852 21329
19577 20330
21329 21596
20698 21123
21366 21616
21850 21920
20203 20328
19671 20266
19943 20149
20056 21538
21920 22040
19689 22221
20834 21957
20775 21945
20625 21657
19851 21267
20961 21329
20330 21342
21058 20505
20203 20775
21107 20222
20539 21024
20231 20393
20512 21906
20560 20625
19900 21174
20652 19753
19753 20208
19771 21602
20537 20597
20160 19811
20797 19490
19873 22100
20969 22224
20529 20775
20276 22132
21210 21584
20892 22085
20500 20834
19982 20549
21366 22022
19563 21071
20509 21046
20272 21210
20107 20155
19709 19900
20085 21276
21616 22146
21654 20171
20991 22204
20892 21188
20404 21560
19685 20706
20361 19642
20983 21793
19847 21835
20327 21560
19629 20988
20073 20613
19880 20823
20308 20896
19702 21394
19958 22230
19831 19877
19608 21603
21239 21589
20560 22157
20704 21469
20267 21394
21210 21305
20864 20167
21046 21995
20182 21169
19613 20404
20727 21835
19513 20500
21829 21951
19943 21925
19770 21271
20023 20850
21210 22022
19590 19756
20267 20786
20249 21670
20042 21329
20752 20795
20537 22121
19904 21142
19579 19873
20276 21234
20116 21616
20002 20025
20692 20775
21529 19773
20587 22204
20730 21408
20149 20867
19764 21159
20296 20915
19630 21708
19904 20064
19687 20307
20276 20303
21096 21845
21892 21033
19682 21616
19779 21220
20182 21228
20056 21412
20692 21858
20993 21333
20938 21329
20597 21224
21354 22013
20707 21329
21210 21316
19682 21174
19605 21210
19970 20126
19927 20627
20802 20983
19914 21976
21676 21995
19904 20242
20469 19952
20684 21383
21496 20461
20296 20669
20208 20283
19900 21773
21539 19553
20500 21267
19536 19558
20054 20543
20427 21895
20266 20796
19611 21427
20560 19473
19914 20249
19761 19661
20961 21616
21042 21867
20328 20795
20283 21587
19611 21329
20892 20983
20155 20709
20124 20493
19558 22168
22102 22137
19534 21540
20178 20196
21354 21678
21894 21180
20489 20601
20407 21220
21058 20283
20549 20870
20327 20851
22090 19982
20333 21572
20414 21329
21840 19703
19577 21389
20763 21404
20167 21373
19782 21526
19661 20675
19737 20785
21104 21285
21894 19652
21517 21995
19821 21329
20625 20949
21388 21981
20143 21570
19631 21835
21248 21934
20252 20680
19996 21169
22081 19803
19682 20675
19628 20775
19688 20387
19536 19830
19903 21504
22085 22194
19625 21104
19523 21645
20940 21451
19918 20330
20549 21825
19829 21858
21333 21895
20500 21995
21195 21825
19918 20768
20892 21605
21329 22240
21539 20094
20841 20983
19851 19982
19779 21511
19491 20775
19568 22214
19691 21356
19560 21248
20409 20929
20001 20616
19887 21965
20775 21071
19700 20570
21962 20730
21058 21324
19473 19846
19749 19867
20276 20988
20462 21329
20352 20917
20276 21413
21210 21688
20216 21835
20549 21684
20775 20786
21377 21564
21210 21538
19676 20577
20014 21643
22047 22031
19604 21825
19572 19829
21412 21880
20228 22221
20159 20675
20407 20785
21010 21169
20291 21329
20405 22193
21511 22194
19613 21644
20624 20633
19856 20359
20923 22067
20155 20358
21517 21965
20689 22145
20203 20915
20029 21740
20597 20315
20276 20983
20061 21714
20056 22214
21329 21521
20650 21096
19952 21616
21342 22253
22040 20268
20491 20018
19644 19840
21271 21382
19508 21329
21210 21781
20276 20665
20307 21677
20298 21329
19526 19900
21547 20991
20286 21900
20296 20431
19877 20404
19741 19778
20493 20590
19799 20306
20029 20922
19590 20766
19630 20678
21234 21676
21271 21824
20343 21228
20761 20061
20519 20644
21247 21645
19806 22249
21024 21752
20276 20426
21278 21329
19649 20796
21546 22204
20036 20283
20327 21239
21210 21381
20249 21313
20363 22128
19660 19770
20107 20989
19489 21432
20451 21868
19491 20915
19996 20986
19877 20773
21161 21547
20768 20984
19572 20161
20306 22043
19851 22085
20407 20795
21317 21656
19770 19870
19782 22186
19847 20706
20423 21616
19583 20938
21887 21216
20461 20968
19479 19558
22040 20493
20730 20558
19502 21842
20675 21945
20180 20983
21743 19491
21271 21995
20069 22040
19976 21778
19870 21096
20921 21254
19473 19985
21010 21618
21645 21900
20307 22040
20330 21169
22081 21554
21329 21794
20457 21825
21412 21864
19536 22034
20596 22070
21318 19636
19536 22073
20781 22253
20327 21398
20627 21329
19783 21778
20361 20475
20915 21891
20135 20547
20537 21465
19711 21238
20933 20988
19661 20731
20052 21329
22081 20690
22048 21839
21228 21586
21262 21832
20775 20988
19899 19770
19536 21196
20500 21331
20249 21024
21119 21499
21096 21855
19671 19884
19903 22146
22081 22045
20900 19832
19737 20451
20549 21824
19534 21210
19578 20982
20007 21605
19690 20501
19691 21540
19536 21840
22067 22091
22106 22152
20952 21210
20500 21891
19604 19630
19763 19847
22090 21412
19914 21708
20652 21995
20387 20652
19943 21868
21962 21990
20689 21793
19572 20692
20311 21329
21529 20663
20587 21180
19689 20500
20039 20283
19572 20688
19689 20474
21248 21404
19770 20663
19891 21329
21248 20643
19870 19491
19556 19687
19930 20342
20029 20330
20929 21137
20155 20891
19676 20549
19567 20025
19831 20246
19952 21748
19904 20266
20834 21169
20812 21210
20031 21531
20597 20628
20500 20922
21224 21329
19566 20921
20929 22204
20283 20698
19661 20698
21856 19661
20004 21840
20929 21689
22234 21298
21708 21821
21169 21835
21294 21046
20283 21254
20303 21169
21554 21616
22184 20615
21169 21180
19685 20451
21856 21220
19688 21995
20892 19838
20249 21990
19847 22214
20249 20387
19906 20456
20709 22194
19861 21276
21513 22013
20652 21138
21412 22084
20688 21953
21645 22168
21119 22049
21571 21724
21856 20834
21847 22040
19737 20665
21962 21965
21616 21669
19676 20407
21145 21840
19903 21920
19676 21335
19907 22128
20405 21154
20795 21210
21329 22212
19536 21469
19851 21548
21830 22168
20405 20688
19924 20431
20461 21329
20988 21616
21571 21839
19714 20221
20811 21169
21210 21440
20917 21681
19572 21725
20616 21699
21084 20387
19661 21725
20598 20127
21250 19914
20921 19661
21060 21945
20023 21410
21644 21829
19930 21248
20296 22033
22213 21404
19682 21487
19900 21900
20786 20802
19949 22185
20892 21042
21246 22234
20039 21824
21616 21830
21060 20785
20276 20625
19894 19909
19593 21078
21145 21401
21169 21795
20423 21867
19661 21821
21104 22097
19904 20429
20407 19838
20056 20922
20689 21900
20327 20595
21560 21868
20883 21347
20025 22194
20493 20652
20451 21169
19527 22097
21648 21225
19851 20330
20061 20696
19799 20689
21856 20140
20948 22042
21560 21900
19527 21577
20815 22136
20407 19722
21377 19873
19489 20549
20670 21234
19691 21210
20352 21210
19904 20689
19710 22033
20519 21394
19782 20704
22029 22045
19525 19851
21248 21024
20215 21681
19583 21327
19756 20451
20451 21831
20509 19764
19536 20061
21200 21024
20306 20940
20342 20922
19903 19910
19851 22204
19685 20988
21231 20387
19572 20357
20075 21953
20627 21586
20560 19540
20507 21720
19798 20500
21142 22199
19536 19628
19553 19884
19830 21190
19906 20155
20514 20625
21058 21594
19577 20451
20652 21941
19566 19682
19506 21736
20709 21174
20186 20276
21962 20354
19536 21514
20627 22067
20249 21966
20565 22214
19918 20228
19909 20834
21248 22196
19553 20024
20811 21900
21248 22073
20984 21316
19823 21073
22255 21401
21856 21172
19602 20500
20170 21548
21329 21839
20291 20949
19690 20116
19536 21945
20858 20961
19558 19831
19841 21766
22098 21394
21220 21248
21470 20875
19571 21329
20689 22043
20601 21159
20597 21046
19861 21073
21962 21740
20811 21852
19739 22207
20320 20387
20276 22146
19778 22043
20155 20988
19749 20276
19947 20276
21554 21900
20451 20512
19474 22146
20404 20961
21296 20536
21001 21877
19556 21210
19831 22132
21000 22214
20343 20121
19685 21316
20652 21262
19887 20974
19779 21315
19621 21329
21276 22166
19491 19814
21351 22065
20194 20775
20037 20266
21065 21965
21248 19543
19625 19816
21867 21934
20774 20961
19490 22040
20327 20420
20249 20945
19904 20303
19717 21487
20730 20841
20423 20670
21699 21766
20896 21329
19491 21436
21539 20315
20185 19959
20501 21992
20001 21995
19630 21841
19680 21210
19558 19631
19484 21154
22021 20961
20929 20983
20341 22253
19591 21329
21058 19906
20459 20516
19497 21096
21366 21598
20457 20883
21237 21329
20730 22168
19572 20730
19606 20068
20698 20980
20407 20786
20387 21787
19870 22118
20363 20834
21210 21645
19884 20431
21329 21814
20160 20678
21816 22214
20434 22148
20409 21185
19895 19930
20549 22141
21329 21673
19536 21766
19918 20689
20709 20984
20560 19638
21329 21584
20689 22174
19904 22113
19947 21616
20405 19513
21329 21598
19572 20794
19475 21010
20157 20387
20220 20823
21840 21322
21962 20501
19756 20328
20590 20988
21487 21825
19979 21523
20938 21849
19572 22067
20549 20918
20430 22080
19904 22031
20182 21174
20155 20228
20927 21584
21248 20417
19798 21327
20657 22194
19880 21134
20746 22146
19976 21829
19958 20155
20771 21010
20155 21476
21616 21945
20625 20670
19556 21793
19846 21316
20327 20362
19579 19906
19763 21147
20914 21313
20324 21929
20327 21046
20753 21995
19926 20066
20313 20500
20254 20423
20014 20068
20272 22068
19731 19816
21645 21773
20999 21329
19491 21867
20249 19763
20184 19676
21234 21903
20465 22190
19608 21169
19904 20140
21604 21953
19572 21356
20968 22040
21210 21234
20469 21159
20501 21210
20698 20870
21296 20018
19927 20838
19737 21614
19870 21589
20995 21854
19870 20173
22178 21042
21381 21793
20107 22089
19580 19890
19833 20307
22125 21498
20500 20823
21306 21031
19489 20004
19766 21169
19873 22013
19821 21740
20322 20459
19618 21997
19628 21210
20186 20850
21042 21350
19577 19894
19615 22227
21470 20068
20405 20988
19620 19916
21210 22219
19526 20182
21305 21471
19484 20689
21962 21891
19683 20716
19792 20231
19536 20031
19717 20068
22098 20895
19683 21351
21046 20916
21169 22082
21856 20922
20286 20478
20652 21901
19572 21677
21356 22052
21571 21676
21046 22184
20037 22184
19737 21138
22040 20387
20249 19708
21302 21620
21000 20387
20407 20730
20267 21973
21329 22152
19497 21773
19904 20566
19690 21645
22067 22096
21538 21900
19693 21324
21058 20171
20259 21329
19851 21513
19763 20500
20426 21329
20155 20665
19737 20231
21962 20786
21867 21024
19976 21584
20890 21516
19779 19890
20519 20552
20753 21119
19900 20074
22015 22045
21305 21454
20961 21377
20095 20023
22040 20921
22064 20054
19479 21821
19572 20898
20407 20688
21835 21845
21058 21138
19677 19866
19995 20061
19816 20763
20155 21412
20270 20980
19572 19608
20170 19628
20984 21427
20124 19770
19766 20029
20689 21619
19605 21955
20352 22194
19737 21564
20307 21210
20402 22174
20075 21373
19991 21401
20982 21329
20402 21616
20423 20940
21225 21893
21042 21410
19489 21210
22184 22194
20405 20023
21743 21397
21248 20916
20689 21147
20352 21201
19520 20658
19792 19994
20075 20573
19685 21835
20327 21201
20900 20905
19816 21111
19916 20940
19625 20768
20775 21354
19683 19870
20500 21382
20399 19682
20961 21699
21210 21267
20404 21965
21210 21225
19701 21724
21254 22045
20949 21267
20340 21724
20216 20025
20220 20423
19661 20902
21248 21302
20519 21112
20170 20266
19649 19495
19818 21401
20915 21781
19894 20675
19695 21210
20371 21221
19976 21366
20116 22040
19536 21981
19779 21554
20155 21835
20387 21535
20768 21843
20361 21974
19975 21329
21151 21476
20407 20387
21145 22204
20061 21373
19556 22100
19536 20900
20299 20950
19829 21169
20355 21670
19816 20802
20186 22188
19510 20249
20080 20493
20648 22214
21001 22088
19602 20406
19816 21450
20001 21468
21570 21643
20774 21329
20927 21670
21172 22040
20892 21318
20892 19649
19495 20694
19518 22253
20189 21793
19861 21412
20684 22207
19755 20449
19606 21210
19536 20010
21758 20891
20548 19960
19702 19756
20143 20731
19605 20407
19685 20983
20208 20451
21533 22245
20451 20500
20010 20929
19816 22091
21616 22110
20875 22052
19563 19873
20766 21356
20051 21138
21107 20721
19518 19945
21149 22214
19630 20547
19903 22204
21313 21893
20730 20002
19690 20968
19556 19903
20936 21210
20711 21313
20500 21234
20812 21286
20892 20387
20500 21539
20684 20316
19924 22084
19608 22188
19851 21234
20688 21900
21867 22067
20140 21577
19907 20031
20548 21995
20500 21024
21509 22040
20341 21761
21237 21612
19914 19970
19970 20555
19763 20746
19624 20103
20330 20669
21868 21965
19870 21901
20500 21945
20276 21561
21246 21526
20870 22040
20322 20643
20688 21845
19846 19914
21704 20296
21238 21556
20445 21504
19870 20865
19851 21920
20357 22040
20974 22194
19536 21401
20965 21519
19873 20500
19545 22040
19661 19975
19904 21981
19900 21682
19894 21174
19629 20766
19870 20499
21138 21898
20523 20694
21354 22194
19685 20644
21704 21995
21248 22086
21000 19770
19613 19783
19904 19755
20709 22140
19676 20554
20081 20689
19903 20296
20369 20884
20010 20577
20764 20018
21454 22052
20354 21929
19690 21276
20220 20988
20467 20753
19998 20763
20267 21363
19556 22221
20220 20387
20554 21329
19572 20811
20764 20922
20387 21317
19642 20828
19613 21616
21161 21761
19683 21602
20299 20915
20501 22152
20340 20050
21856 21234
22029 22085
19660 20921
21060 19930
20196 21910
20420 21427
20037 19704
21254 20387
20276 21835
19970 20730
21638 22040
20357 20731
21850 21172
21334 21469
20652 20459
20459 20675
22086 21046
20997 19873
21238 20196
19483 20054
21154 21169
19536 19543
20249 20352
21781 21837
21313 21616
20322 21869
20465 20357
20407 21829
19771 21249
20570 21677
20258 19682
19839 20549
20249 22253
19536 21554
20900 20707
20215 22065
20445 20922
20511 21412
20959 21394
19701 21169
20407 20010
19918 20709
21248 20173
19649 21349
19907 20811
20215 21234
21058 22204
20306 22181
19911 20387
20802 20891
21234 21616
20627 21571
20292 21476
19608 20915
21962 21443
19606 20407
19530 20028
20404 20768
19904 19927
19737 21689
19545 22194
21042 21324
20802 21825
20493 21271
19782 20774
21248 19994
19661 21329
19558 19737
20056 22085
20806 21031
20705 21209
21766 22072
21377 22085
19566 21735
20267 22141
19870 19676
20661 21814
19779 21830
20186 20344
20155 20596
19823 20358
22029 20475
20573 20893
19819 21354
22040 22214
20357 21708
19803 20407
21174 21920
19521 21329
20184 20306
22234 20895
20892 20566
19737 22146
20249 21295
19487 20832
20134 20689
20358 20514
20892 19682
19719 19900
20811 21191
20155 21234
21329 21986
20138 20549
20405 22102
20026 21766
19880 21332
21022 21571
19870 20286
20688 22215
19606 21708
21962 19505
21248 19739
21925 21945
21058 20980
21009 21417
19870 21840
20001 22117
20387 21286
21645 21886
21305 21377
20129 20923
21476 21955
21001 22152
21648 19693
20407 22082
21042 21347
19901 20537
20543 21329
19976 20709
19649 20333
20029 20286
20208 20354
20167 21169
21448 22234
21248 21491
20029 21513
19628 21521
19914 20627
20216 22067
20549 21302
20056 20354
20405 21318
20126 21793
20407 21945
21186 21189
20698 20867
21071 21793
20327 21682
22029 22146
20179 20625
20560 20900
19605 21169
19904 20313
20292 20818
20968 21616
20363 21945
20494 20709
20731 21920
20515 21692
20549 21830
19873 21951
19904 21401
20823 22040
19512 19870
20040 21835
21648 20387
19984 21267
22040 20313
20900 21957
20993 21065
20689 21415
20227 20249
22040 21295
19625 20330
21366 21699
20036 20387
19763 20627
19536 21451
19737 20598
20501 20853
20509 21572
19588 21494
19900 19910
19851 20010
19654 20549
20061 22040
21228 21305
19903 20423
21316 22040
19915 21381
20075 20125
21305 21900
20560 21354
20709 22215
20689 20775
21058 22073
21962 21424
20768 20991
20159 21616
20812 20915
21415 22128
19926 21570
19949 21402
22040 20417
20082 19972
21225 21228
19904 20283
20405 21366
20342 21295
20249 21491
20054 20796
20864 20865
21237 21412
21169 21645
21102 20385
21632 20875
21856 21538
20688 21487
20001 22214
19572 21316
20549 22042
19830 20276
19918 20116
20432 22214
20696 19628
20215 20171
20875 21571
19536 19803
21965 22187
19485 21302
20892 20313
20982 21571
19900 21505
20049 20138
19996 21792
19518 20688
21504 22099
21071 21286
21248 22045
21676 22034
19822 21096
20451 21109
20500 21465
19851 21392
20023 20384
20023 21858
21645 22013
22040 22102
19945 21313
20929 21078
21058 21401
19490 20276
19870 21560
20989 22136
20641 21898
21377 21825
20137 21343
20500 21404
21000 20870
20982 21412
21668 20688
19830 19984
21327 19757
21169 21554
20370 20775
19737 21465
20352 22040
19899 21825
19904 20296
19711 19903
21894 21187
21112 21464
19873 19903
19624 21324
19489 20065
20116 22033
21248 21995
21648 20499
19779 20799
20500 21332
20025 20500
20566 21793
21412 22166
19683 20669
20216 21901
20850 21366
19671 21078
21451 21900
20573 21689
19785 20249
20802 22106
19792 21381
19490 20828
19829 21210
20399 20690
19792 19682
20249 20372
21254 21946
21538 22070
22125 20305
20031 21387
20500 21305
20795 21169
21571 21678
20196 22013
20698 21560
20322 20402
21329 22107
19982 20155
20186 22215
20811 21858
21354 21402
19770 22234
19900 19764
19782 20731
20074 20730
21962 21305
21042 21839
21001 21616
20328 21313
21962 20529
19737 20021
19719 21073
20763 22102
21060 19534
19677 22168
20299 21879
19553 21354
20716 20961
19485 19682
21104 21712
20938 21825
21210 21511
20066 20549
19900 21677
20296 21616
20870 21487
19904 19556
21962 22204
20283 20753
21758 19873
20736 21571
19903 21427
19629 19873
21313 21879
22178 19843
21254 21324
20405 21225
19710 21644
20549 21112
19661 21169
20358 21900
20189 20512
19982 20989
19778 21350
19766 20514
19661 19918
19737 21981
19870 20031
19873 20914
21354 21839
19661 21097
21267 21902
19489 21616
20026 21821
21962 22141
19722 20431
21476 21831
19605 20155
20261 22045
19903 20603
20407 21995
20694 21210
19489 20546
19914 21210
20326 21589
20407 21305
21642 22184
21058 20315
20267 21891
19844 20482
20652 22184
19764 21354
20690 21668
19512 20629
21829 22240
20841 21476
19558 21616
19647 20500
19606 20648
20049 21401
20286 20404
20246 21254
19792 20493
20900 19482
19491 19779
19608 22040
20684 19792
20854 21644
20040 21584
21962 21469
21313 21858
19899 21824
19770 21046
20684 22067
19690 21996
20892 21115
21169 21262
19904 21614
20995 21621
20892 19802
21099 22136
20771 20983
20537 21119
20266 22040
20322 22116
20061 20278
19611 20126
20010 21210
19839 21793
20688 21616
19911 20283
19856 20511
19536 20598
19484 21002
21829 22074
21945 22139
20249 21412
21462 22204
20286 20322
22052 22188
19530 21705
21129 21929
21814 21234
21271 21990
21504 22100
19779 20014
20371 21793
20061 22013
20814 21210
20968 21210
20918 21839
20857 20942
20987 21900
20500 22128
21793 22132
21616 21825
19798 21465
22118 20682
21318 21118
20116 20896
22113 22049
19566 20387
20387 20802
19711 21329
20698 21891
20040 21781
20299 21900
21228 21366
19830 21210
20328 20766
20241 21550
20327 19590
20286 21329
20500 21840
20220 21220
20514 21645
20008 20351
20968 22152
20879 20983
21058 19688
20013 20821
19606 19918
19491 22200
19889 21825
20404 21318
20900 22049
19914 20675
19966 20922
19779 21740
20001 20246
21470 20802
20266 21577
19870 20354
21469 20103
20892 21137
19877 22092
20688 21317
22184 21694
20065 21945
20513 21669
20891 21169
19776 21329
19984 22141
19930 20763
19895 20415
20278 21159
21210 22067
19555 19693
20627 21010
20993 21616
20354 21699
20812 22194
19918 21586
19987 22067
19492 21104
20056 21645
19766 21699
19904 21801
21539 19508
21231 22045
20407 22045
21469 21678
21366 22168
21058 21213
19816 21676
19900 20004
20892 19605
20560 20958
19737 21313
21145 20387
21254 22204
20929 21329
21619 22128
20462 22253
19539 19705
20387 22234
20387 21957
20276 21584
21840 22040
20417 20500
20549 22067
20029 20352
21313 22215
19739 20249
20371 21350
20283 20567
19671 20730
20500 22046
20892 19868
20008 20283
20029 21154
19608 19690
20892 21037
21829 22215
20405 21589
19572 22142
21835 22040
22081 20387
20587 20493
19903 20324
19903 21318
19556 21350
19536 20459
20630 21829
21347 22042
20549 22214
21470 19508
20669 21670
21571 21856
19556 20917
20730 21616
19621 21829
19783 20291
19977 21956
19870 19795
19895 21859
19737 20499
20001 22080
21504 21644
19583 21839
19506 21805
20107 20276
20643 22013
19605 22100
20407 19884
20171 20500
21248 21142
20078 20884
19904 20061
20802 21571
19943 21174
20386 20451
20221 20803
19779 21840
19877 21183
21887 20283
19737 21998
20652 21316
21207 21046
21680 20796
19856 21540
21210 21829
20929 21590
20660 21210
21962 20307
20155 22214
20306 21432
21329 22199
19701 20991
21432 22128
20802 21564
21145 20823
20625 21210
20376 21867
19984 21002
20276 20689
20566 22181
20480 21571
19705 21835
21412 21707
20376 21248
19816 19846
20552 20857
19677 22215
19661 20446
19566 21234
20379 21305
20291 20950
22184 20892
21276 21900
22255 21725
20427 20766
21965 22250
20945 21669
20891 21831
19870 20958
20451 20675
19588 20774
19985 20625
20775 21835
20052 21476
20299 21191
19518 20075
20023 21867
19630 20068
20892 20055
20040 21571
20892 19843
19682 22040
19843 21356
19906 22040
20404 21801
21234 22100
20597 21402
20024 20802
21191 21329
19630 20763
22234 21331
19806 21512
19914 21925
21962 21260
20407 19901
19663 21210
20811 21210
19572 19860
21060 21316
19884 20999
21648 20459
19900 20828
21510 21571
20126 20276
21209 21412
20249 21119
19631 21078
20203 22194
20743 21122
21589 20445
22033 21645
19904 21974
20129 22084
20001 19637
19895 20768
20500 20820
21138 21704
20445 21720
19782 20875
19900 20235
20864 21573
19606 21867
20185 20842
20997 21401
21962 20918
20500 21731
21102 20093
19490 21169
20276 21276
19676 21441
19904 22044
20625 22013
19900 20577
21271 21901
21584 22174
21825 22100
19890 20004
20155 20352
20263 21329
19907 20688
19572 21067
20500 21316
21169 21670
20270 20283
21555 21602
19606 21877
19682 21147
21154 21210
20929 21670
21531 22249
19710 22013
21962 22173
19559 20537
19903 20857
21825 21839
20730 19705
20362 20988
21856 21995
20031 22072
21499 22118
19490 20986
19520 21042
19516 19661
19841 19947
21571 22111
19749 19823
19904 20066
19771 19779
20892 20173
19958 22204
19583 22224
19687 20330
20514 22245
19910 22052
21388 20529
20080 22034
20893 21867
20549 19807
19894 21279
19895 19838
19976 21965
20605 20709
19814 21240
20652 21363
21002 21699
21248 20286
20103 20343
20500 20812
21850 19906
20296 20940
19900 21060
20775 22224
19577 19914
19778 22106
20914 21401
20892 20299
19691 20404
19866 21096
20570 21210
19708 20905
20777 22214
19951 21210
20552 22040
19638 20500
22168 22214
21505 21645
20155 21413
20652 21875
21540 22052
19737 21240
20025 20802
20500 21656
19903 21073
20775 22128
20177 19748
20989 21705
19583 20626
21046 19680
19685 21381
22234 21123
20007 21934
20004 20194
19868 20652
21112 21980
19770 20208
20441 21725
20643 22040
19829 20500
19918 21564
21856 19868
19737 20965
20025 20915
19749 19821
20001 21829
21547 22207
20026 20266
19851 21996
20051 21234
19490 21210
19722 19918
19563 21381
19649 20544
20633 22067
19873 21210
19888 21728
20547 21366
20549 22034
19900 21324
20627 21305
21732 20730
19630 20627
20157 19771
19606 20248
20730 20731
19792 21366
19495 20942
21377 20974
19654 20905
19792 20811
20106 20549
21892 19899
20763 22067
20155 20983
19798 21778
20775 20795
21119 19881
19690 20358
19660 20682
19583 21526
20983 21210
19699 19756
19608 20155
19996 20547
20501 21174
20689 22187
21616 21670
20409 21272
19818 20423
20648 22067
21248 20567
19536 21305
20155 21561
20125 20658
21538 21616
20296 20605
19960 21558
19676 19986
20892 20799
21829 20796
20052 21670
21119 21254
20915 20961
21366 21432
22081 20688
20449 21329
19870 21778
21028 21945
20371 20796
19536 21741
21174 21538
20299 20322
20821 21329
19886 20103
20095 21995
20312 21829
21143 21781
19910 20974
19688 22041
21930 21806
20322 21291
21544 21945
20328 22052
20216 21234
20777 21267
20061 20549
21761 22152
21354 21569
20327 21749
21329 21860
20940 21570
20249 20291
19900 20553
19608 20170
19608 21174
20871 21329
21058 21318
19779 22034
21329 21476
21186 19682
20426 22184
20811 22181
19526 21389
19725 19900
19661 21146
19685 19778
19968 22173
19737 20140
19606 20500
22047 22085
21096 21369
21313 21350
21058 22090
19988 22128
19816 22187
19984 21586
19536 19534
21450 22045
20031 20796
19572 21313
20549 21906
19661 21373
20712 21104
20643 20648
20196 22040
20548 19693
20949 21669
20689 20882
21821 21900
20652 21119
20387 21218
19647 21248
19630 21169
20276 21705
19798 22045
19904 20616
20186 21867
19887 21778
19878 20307
20627 22128
19479 20968
20303 21373
20266 20276
19899 21513
19725 20129
19518 22003
20031 20929
20215 21276
21571 21814
19918 21234
19572 22102
20155 21073
19927 21356
19545 21080
21514 20004
20858 21901
20834 21616
19847 20891
19773 21286
19968 20308
19894 20276
22213 20493
20327 22230
19701 21708
20768 21210
21248 19630
21616 21705
20061 21169
20699 21864
20371 20500
20270 21800
21474 21504
19900 21425
21254 19770
20549 21645
20399 20833
20501 21619
20891 22101
21070 21934
22535 21275
22579 21610
24560 21119
22292 21681
21332 22919
19914 22399
25909 21629
25108 25813
22795 21610
23429 21806
22933 19757
21119 24937
25353 22461
24954 21509
25402 19625
25512 23706
23852 21609
25932 20559
22839 21835
20689 23150
21673 25753
23552 20744
21318 24057
25308 22962
23915 24296
21440 22666
22588 21584
23444 20899
23444 21275
21690 24144
25822 20987
25088 26180
21164 21498
23972 21978
19906 23163
22080 23891
22581 21629
21333 22683
24685 21681
21747 20652
22922 23726
22156 19717
23444 21427
22650 19618
25822 22113
19802 26180
23135 20299
21216 23902
21189 23099
23154 22024
23086 21424
22927 21830
23264 21380
22911 24096
20085 22565
24144 20283
24148 25890
22682 26207
25854 26207
22652 23691
20321 22881
25909 22261
22498 21736
20305 24574
25308 21740
22776 21380
21825 23099
19997 24002
24934 20945
23205 23929
23800 22260
22498 23525
25479 25061
22747 20283
22938 21242
26086 23616
19960 20652
24749 21275
23870 21046
20716 23634
23983 24241
23154 19688
24360 20227
24484 19816
26170 25384
25753 20555
22021 23638
25822 21102
23143 25813
23452 25355
23087 23187
22424 21519
23179 20804
22559 19746
20260 23623
25180 25015
25067 21509
21856 23602
21629 25067
21064 23866
22623 21599
25067 23566
20216 22184
23165 21901
22658 21276
24181 23168
24645 19796
23837 19625
24248 21656
25652 24368
24237 23602
20909 23311
19638 24297
24326 23871
22073 21046
25010 22214
20921 23940
19660 21401
24277 21138
23502 19608
23074 23410
26082 22629
21761 22919
24718 20608
23852 19947
23800 20411
21648 23090
23728 21491
21614 23473
20592 24161
21778 24023
23091 22560
22073 23279
25188 25781
20051 19628
23069 20195
24695 19527
24806 20896
23154 20749
25353 23753
23234 19949
21875 24366
22073 25212
22354 20305
23424 23370
23604 23470
22497 22184
23360 20103
24510 22212
25461 24214
24144 21901
21465 22466
23165 21229
21941 22532
23429 19540
21465 23541
26164 19529
25390 20496
20688 25353
19625 21966
22485 21112
23761 20171
23586 23704
20560 20643
20826 23634
21995 25813
21633 23634
22204 23836
23788 21869
19955 24251
24322 24906
21974 24718
20164 22747
23092 24297
22253 23179
23234 19778
20834 22874
25000 21681
23801 25720
24033 24756
23935 24037
21048 22963
24631 25702
25449 23602
21967 22531
23911 24900
24057 20958
22458 23007
25212 22373
20164 26182
21213 25849
24610 21127
20811 22919
25283 19829
23852 19753
25420 19688
20482 22653
19824 23518
22080 22594
22261 24772
21160 26020
23654 22963
22975 21138
22581 19996
25402 21205
25180 25390
21316 22957
22204 25275
22652 26104
20832 26020
24610 21766
21316 25013
22308 19605
25943 20031
23143 20788
26179 21990
21892 24484
20182 25100
24577 20283
23179 21946
25665 21548
23841 24297
19523 23549
23057 24025
23017 21978
24510 22919
20068 26063
21761 23852
21756 25418
24749 21589
24752 24059
23261 25764
23154 20552
24677 23836
24237 23446
21995 24002
20624 24412
25333 21663
22275 21014
25641 20315
23179 24026
22579 20164
23179 20296
23161 21400
24107 24277
21998 22776
23179 22157
20818 22297
21529 24237
23205 20571
22937 23646
19958 24462
22275 20256
21604 25120
23313 23510
22116 22345
21446 22296
24282 25909
25297 23176
25013 21942
20932 24906
21993 21978
24371 25512
21491 22430
23740 23461
21001 22636
23154 20873
22650 21394
22410 21276
22358 20957
22559 24871
22859 21046
25088 25412
23582 25275
24510 19792
26164 23003
25308 20692
24607 22113
22086 22651
26141 21310
21705 23747
20400 22553
24508 19994
23889 19701
24536 20742
25781 21331
23788 20230
21589 22830
20682 25608
21424 20249
23793 20246
20470 23238
25352 24225
23559 20760
21228 20729
21465 20652
22116 22382
22498 24025
21334 23634
23618 19894
23082 19873
21791 22888
22830 21119
24250 21568
21747 22687
20968 25800
22228 24277
22204 24135
22498 25449
21476 24718
23485 23871
21151 25187
21778 25161
23870 24192
22566 20098
21995 23218
23362 22184
22874 20246
21446 23561
26098 19682
23234 20372
22699 22549
24536 24861
23255 23758
20536 24025
20423 23891
24859 20744
19689 25355
25593 25817
25086 21138
23154 21381
22498 20802
25774 24247
23103 21941
22296 19540
23612 24452
23429 20329
22791 19955
23179 21670
23179 23616
25449 23844
24607 20867
24656 20729
20788 23534
25000 19873
23460 23311
24938 20406
24188 25355
25909 24937
23193 22773
23531 21610
19856 25067
23382 21797
22228 23176
25297 24250
25536 21446
22874 22791
20873 25067
21554 23410
23429 22184
22972 24997
19491 25015
25108 23799
23234 20983
23680 21381
22581 21656
23977 23871
19914 22957
21404 23031
23761 20183
24297 22878
21893 25073
21648 20682
21560 23552
21586 22631
21995 24802
25353 19947
24192 21313
22682 20945
24436 25420
22073 19975
21465 24484
22067 25355
20865 22358
23457 24243
21498 22531
19977 25741
21119 25468
21392 22322
21526 25976
22116 24135
24771 22921
19642 22966
22960 21734
20423 24396
20552 25772
24248 22791
25168 21119
22839 23566
25083 20832
22791 21014
25402 25210
24249 23092
21465 23733
23632 23153
22630 25607
20332 23078
23889 23844
25000 21610
19683 23619
19880 22184
20500 21835
23382 22333
23852 24529
20031 23099
23732 20195
19683 22308
24133 20257
23424 22348
22073 20009
24610 20173
23437 23275
19768 25972
21901 22546
20789 25114
21549 22830
20932 22795
22830 21840
20252 20329
19795 25161
19930 23761
23869 22086
23457 21648
20025 23350
25490 26180
25000 25027
19489 24192
19931 24481
22204 23523
22091 23052
21188 25114
19874 22687
24025 23616
22623 19816
23087 23619
24288 19768
24608 25512
20689 23852
25239 22577
21513 22666
20873 20991
21222 20744
21213 25495
23382 19877
20873 19494
21465 23604
21590 19870
20684 23389
23751 25772
22682 21302
24033 25174
23205 22630
22204 22623
23869 22859
23103 23205
25822 26182
19775 19868
21638 23179
22652 22719
23654 20329
24631 24884
24144 21645
23852 23640
21572 22791
25174 21401
23903 21498
20018 22286
20164 23845
25608 22102
24248 20811
25411 21978
21295 21648
21712 23634
24573 23782
24002 22023
21610 22666
25213 26104
24057 23461
23656 23663
20332 23733
25067 20246
20470 23176
19868 19948
25737 21047
23161 23187
23593 24624
20249 22294
23953 20922
21325 24251
23444 21734
23582 20283
21892 24025
24791 24463
23927 25187
24935 20315
24624 24793
23031 21275
26081 23358
21705 22466
23250 21873
21829 23549
25854 22972
20509 24484
20555 25781
19512 22296
26143 25614
23179 20987
20550 25161
23832 24277
23961 23859
25150 19579
25109 23982
21560 24493
20839 23993
25010 24954
21748 23090
23506 19782
21827 25641
21756 26171
25000 20819
21227 23813
20182 23609
23176 21138
19683 25626
25239 21073
20766 23179
21220 23646
20018 22040
24695 21024
25471 21538
25449 22962
22773 23410
24452 22583
20321 23604
22213 21427
22628 25504
24025 20608
24023 21491
25737 22645
21892 22483
21901 25468
24808 25976
23960 25813
22157 25754
23480 24413
24250 24160
22476 22102
22450 19518
22579 22553
21468 24134
24402 25150
22358 22294
25904 20171
25822 22046
20967 25363
25353 20296
20727 21901
23092 23264
25854 25976
25503 25161
22546 20983
23099 21119
24542 26020
23324 23344
23740 19540
22261 22687
19819 22549
22747 21547
25449 22146
25618 23844
25471 23275
24248 19873
23375 21067
23033 21778
23311 21276
25607 20217
20688 25161
22628 23619
19661 20908
22476 20321
25822 21610
21677 19894
23250 22652
22498 22461
22761 23264
21138 20652
23510 22943
23250 22604
26141 20103
21515 25161
22839 25103
24233 20461
19791 24836
20834 24412
21625 22014
25781 20296
23950 23782
22354 21921
23559 23497
21096 22671
25174 25817
25420 21401
21119 24462
25468 21681
23086 21397
23011 20445
23852 23744
20658 25772
22651 21331
22623 22021
20657 24297
24315 20811
20684 25652
25000 24371
25810 20785
21465 24462
21965 23610
21995 24237
22227 23593
24133 21156
25027 24574
19802 22358
19843 24031
23193 19636
23800 23049
22839 20195
22594 21945
20799 23031
21284 22549
22073 20400
22577 23704
20923 20873
19546 24247
20500 25490
20501 23552
25290 25976
24250 25478
24993 20493
21791 24412
22430 22113
22874 19660
24944 22683
23154 23857
22358 19756
26082 21067
23485 24405
22196 22658
24238 25412
20451 24277
20164 24836
24631 24861
24178 25161
23010 23120
22073 21322
20833 21210
22791 20457
24282 23609
20674 24624
22650 20195
22330 21988
22652 22957
21680 24346
22204 23793
22791 20264
20054 22666
23736 21797
22791 21773
23154 24789
23234 21568
21589 22666
23896 22184
21468 23410
19979 22671
23536 23331
22839 19628
23311 21366
24288 19877
22196 23972
26149 21901
23444 21494
19621 22358
23091 22373
22141 23812
22345 20296
24607 23559
22375 20171
23753 23747
19764 25828
22650 21901
24371 25114
25018 21862
22354 19873
22438 20775
20421 22531
21974 23813
25449 22560
21316 24410
22213 22566
25735 19873
25536 22086
24830 22044
22546 21978
20322 21705
20066 26164
21990 23903
24663 23586
20988 25772
22682 21276
21227 24277
23618 19717
22379 23891
24817 21498
21861 25703
20689 24297
25339 26003
20873 20440
23090 22892
21468 24971
21859 25275
24624 23003
20025 24859
21076 23852
20055 23800
24806 23782
24314 24484
21948 22424
23594 24333
21859 25672
24037 25362
25353 20352
22829 22190
23460 23410
20466 25976
22261 25212
21648 21160
24473 25976
22791 19494
21995 24520
24738 21151
25933 23437
25220 22559
24462 23340
25150 24968
23915 19505
21469 24412
23179 20786
19966 22184
25478 24756
22650 22086
23889 22077
23654 20922
22687 22113
25725 23065
25200 20079
20792 21305
21993 21734
20500 23010
24192 19722
23179 21605
25402 22156
22830 19605
26031 25929
20231 22776
20874 22888
21465 22687
22193 24716
23983 26152
23903 21538
26096 25569
22933 21610
22189 22778
21204 24756
22400 23552
23092 24900
23426 25138
24297 21584
20945 25424
23193 21476
25124 25890
25000 21102
25627 24214
21267 22919
23444 22253
19906 23264
22658 22132
19590 24789
20164 25449
20792 22629
19843 23172
23812 19839
25932 25708
24160 20647
23801 23745
21513 22623
20728 23573
23154 23911
24749 22563
23975 21901
22839 25384
23790 22113
23234 21159
21459 22666
21122 23852
23224 21610
23250 21625
20445 20873
23194 21138
22207 22281
24859 23090
21119 22795
24610 21067
24695 22031
20873 25362
23179 22400
22933 20596
22829 21901
22041 23179
23250 22657
21394 23179
21778 23078
21446 19913
22791 22154
23995 25652
20500 25607
22658 21781
20296 25161
20815 23559
23615 24756
24288 20433
20329 22778
21213 25905
24577 20555
20332 22418
21993 20545
19922 22430
19717 23045
24288 23780
20682 24756
23429 23097
22631 21538
23845 21978
23444 20550
22546 19628
25652 21568
22532 21443
25321 19628
23154 20371
19812 26002
25753 24387
24224 20549
23767 22184
23861 21586
23361 21648
20458 20354
22719 22604
23919 22539
22656 21670
24937 25049
25781 20958
25449 22563
24695 20812
23375 21901
23903 20795
20785 23902
21363 22830
19756 24484
19906 23078
25402 20767
21376 23017
22141 25909
24250 19930
24297 21160
22650 22214
22145 25402
25308 24909
23767 21440
22581 20352
25822 20932
25753 25166
23099 21275
21490 22666
23154 23993
23869 22184
21836 23360
22878 20051
21213 22275
23559 22625
20768 24947
23654 20371
23761 22549
25639 24637
26058 25929
23761 23272
25308 21488
21188 26020
25503 25362
21363 23179
23919 20628
23205 23344
24749 20596
22189 23733
25000 20658
24685 20315
21101 23176
23429 23261
25161 21216
25618 20945
24610 20932
24656 25503
24250 21669
23890 21024
20945 22273
23027 22070
21561 23852
23801 21302
26201 21366
21728 24322
24358 25753
25161 23043
23179 19763
25200 26081
19904 20357
23733 20016
21560 23163
22498 25251
25200 19610
23263 19628
22985 22770
23126 20987
23960 21216
22636 22423
23311 20945
23287 24947
24233 22531
24003 23726
25353 23296
23506 20305
24211 25273
22345 20246
22034 24412
19755 19870
19502 21024
23960 25150
23870 23816
24288 23049
21995 24302
21119 23045
25180 24297
21398 22963
23179 23859
22358 21103
22539 23610
22297 20931
19916 23646
21993 21840
23728 21526
21229 22286
23788 19628
24250 23559
20432 24251
23375 19683
19602 24954
23634 20773
22086 25962
19706 21724
25402 20815
24250 24680
22918 24250
20553 24160
23052 23230
20578 23726
23165 20932
23813 21529
20140 24288
21071 23902
23039 22943
21318 25355
24250 23611
22257 23634
25367 25449
24817 26207
23940 23593
23161 23172
24355 24574
22524 20823
22293 23297
22773 24290
23179 21901
24002 21138
23836 22184
22650 25607
25156 25699
24541 24368
22375 21354
20196 23297
26117 26107
19791 20628
23263 23034
22424 20086
21800 22776
20923 23602
22791 20861
21892 21349
21213 22990
25390 23753
24844 23624
23661 23841
23091 22962
24413 22113
23234 20744
21830 22776
23623 21256
24413 19816
21584 22040
25854 21632
24934 20336
26181 19753
19791 19975
25729 19869
23444 20684
25160 19905
22308 19873
25729 20768
22532 21610
25909 19782
22498 23250
25128 22577
25618 25771
25943 23594
20329 25540
20055 22650
19759 23077
23800 21901
19877 22430
22132 24277
19930 24462
25449 21220
24405 25449
21735 23961
23870 22184
24677 23972
25751 20251
23953 23297
23263 23513
22164 25813
21993 19683
22358 21313
23444 20135
19979 23264
23950 20110
19766 25015
23052 24968
24250 23314
20307 22339
20433 22511
19791 22142
24500 20921
20932 22358
22283 20536
22927 19691
22339 24251
23892 21998
21119 25114
21561 24484
22636 23859
20865 22888
21122 22682
24238 20406
22990 21276
23375 23090
24031 20025
21779 23634
23179 21220
23154 25125
24144 21138
22073 20249
19529 25774
20570 23176
25156 22782
22275 22418
24536 25168
21119 22511
24509 24179
19475 23852
24288 20545
25260 25067
24695 22045
23995 25817
23972 19763
24060 21332
23263 22044
20847 24251
26170 21207
22458 19819
23106 21267
25273 21015
22193 24871
24025 20786
20601 25150
21213 22358
22213 19628
25239 25103
21042 22776
23205 24811
24738 19792
22223 22430
20182 23078
26180 22113
24360 23594
21225 22418
22294 20528
23738 21276
24610 22758
23654 21538
23194 21600
23786 21404
23800 20296
21499 22962
22791 23102
24770 24927
22687 20299
21618 24366
19979 23077
23135 21681
24933 24987
19802 22430
22196 25161
23457 20875
22636 19753
22583 24484
24462 21610
22382 20804
21316 23619
25027 25114
20893 26180
22666 19873
23460 25449
19534 23238
23972 21220
23077 20171
22535 25074
25753 24303
23424 23205
24297 22549
23852 19957
23205 21782
23205 25631
25352 23362
25512 23176
20016 24484
23047 21470
19705 23205
22106 23317
23611 20315
23179 21610
21098 21677
23903 23140
22275 22061
19529 22466
21660 25715
19791 21015
22581 21119
22031 24520
22581 22067
23099 22653
25000 21392
22436 25754
23188 19975
24192 23753
20322 20665
23661 24405
24248 24368
23995 24954
21188 22975
20688 25449
19916 23230
23234 23857
26201 23559
22919 21313
21363 22892
22791 21865
24139 19756
24959 23264
19578 22466
24139 25808
23263 24741
24792 21965
23712 21873
26180 19738
24192 21498
25259 21276
23052 23311
21561 23638
23465 25449
22768 22604
22293 25820
19768 19889
20644 22666
20272 22576
20961 24237
22782 19628
19914 23845
20306 23654
21067 19904
20228 22666
20851 26020
23099 20016
19824 22623
23444 25046
25166 23005
20873 20155
20958 22919
24374 23844
24346 19860
23151 22297
22461 22430
19782 25817
21412 23479
22782 20171
23092 24465
21465 22919
19870 19628
22628 23264
19982 25161
24859 19816
20186 24281
20500 21154
21539 24836
20689 22297
21859 25449
21465 21046
23389 25512
26082 21705
23762 24277
25244 24758
23250 22014
21450 23090
21446 23891
20857 25976
21995 23610
23960 25607
25449 21160
25503 24756
21119 24762
24023 21901
23611 20298
22775 26099
23091 20965
22073 22747
22067 21015
23098 23047
20900 23552
23154 25073
23049 25754
22650 19763
23852 23446
23612 24277
21836 21275
25244 22656
20967 19768
21800 25904
24325 22023
23480 23733
26081 23857
22086 23506
24906 22657
25625 23049
19982 23370
25168 19960
24139 21138
25244 21829
21104 24769
22141 23852
19625 22791
22196 21993
24234 21733
21119 24225
25074 21057
20921 22345
21318 19870
22747 21835
24695 19949
21468 22833
25480 24224
25751 25540
26164 20160
24553 23852
19505 24906
25161 23799
20643 25909
19710 25449
24434 23324
23027 19824
20025 24906
20807 23360
21037 24756
24631 24944
19778 26020
25367 22187
24192 20931
25449 20958
26181 23534
23950 19823
23297 20147
22919 20241
24610 24033
26081 25673
23165 23611
20560 21427
19900 22273
23052 24861
19527 22666
19630 22623
24802 22962
23429 21514
21995 23230
22021 24574
23669 22271
22052 23111
25067 23844
21901 23936
19661 22003
22938 22289
25000 19844
21965 23264
21359 25074
23179 21078
21119 20264
21188 23790
20018 19518
24495 25512
24553 25754
21941 25114
21332 23733
21149 23010
26017 22559
21589 23179
25223 25138
21680 24718
23099 21413
22382 19506
22933 22583
24368 25848
26180 19874
21160 23150
25919 26030
25909 20283
26017 20195
19812 22358
24831 25512
20409 20249
22975 22118
24057 21119
21993 20789
23031 19782
25030 22652
19608 22356
23234 22157
22443 20545
19877 23531
25308 24188
22148 24718
23086 19778
21123 22671
20203 24297
22498 22539
24266 24900
24592 24584
23866 24900
19738 24277
23052 24374
24573 19688
25909 20987
23494 21138
21561 25909
23747 25565
23536 23275
23375 22184
25955 20324
25367 25702
21883 22418
22560 20103
22358 19907
22073 24277
21559 24002
22546 19924
20442 20371
20343 22311
20164 23788
21974 23179
24959 25067
25514 25813
23586 24900
20916 23945
20795 25540
24749 21632
20922 24507
26058 23324
21302 23552
20500 19628
19534 22546
22594 19545
22566 19688
22933 21298
20286 22416
24695 20321
24830 20979
20873 24984
22275 20711
25018 26081
19512 23078
25909 22116
20249 20296
21009 23099
22379 19568
23852 24217
24036 23706
22358 19695
24692 19792
23001 21498
22911 23140
23205 20147
23845 21138
23052 19988
22476 20135
23099 21966
23085 24861
20332 22666
21993 22260
23961 21973
20085 22354
21826 25608
23017 22436
25390 20387
24237 19782
24139 25273
21499 21770
20159 22919
23669 25972
22919 22560
22795 19873
20249 20195
24592 23839
23719 19763
25449 25273
21735 22583
20351 22040
25083 22116
19695 25223
20028 22776
21412 25355
21318 22623
24134 21401
22082 22666
25124 25751
20500 21978
21128 21544
23154 20154
22470 25595
24434 20116
24188 24718
22275 20110
22629 24624
23836 21901
22829 20082
21629 24410
19611 21924
24436 25781
21465 25237
22086 24302
23559 24297
25540 21594
25449 23043
23852 20283
22546 22340
24573 20239
21892 23788
22358 21382
22498 25972
25000 21700
23623 25449
25088 22511
19868 19777
23813 21232
22747 20451
24192 21536
22458 22671
25353 22167
21974 26014
25237 21138
21316 22795
20578 23161
22450 25449
23800 21331
23151 23953
19710 25512
19785 23099
22658 20493
21564 22666
20932 22430
23912 19894
23869 21238
25027 25626
24144 23275
22938 22230
23166 25904
22458 20078
22663 24297
21164 21670
25854 25630
23536 20387
22623 19947
19498 23704
23836 19722
21318 22511
22275 20249
26081 23052
22754 25362
21633 23461
20018 23573
23224 20804
21318 23179
22658 20274
22891 19801
19591 25781
23049 22919
24402 21978
23261 23552
19602 25781
20107 25161
25000 20786
21673 19706
24695 21244
21122 23039
25412 25929
23255 24179
26002 24366
23788 24238
24188 20051
23960 25363
22650 19768
25909 20865
24452 23566
23852 19839
23151 22257
22227 26149
26207 21432
25353 23092
23250 23389
19930 24861
22623 22136
24288 22042
22747 20351
22563 23531
20351 23410
21559 23845
24360 24584
20313 24718
23166 25412
21535 25607
21965 24756
20315 25187
23680 22577
24610 23151
19969 22892
22049 23461
22891 20010
26113 24574
23187 21216
22636 21009
23961 20995
23311 24179
20129 25540
22358 20709
20196 23410
23536 21498
24248 21549
19661 23410
22683 25772
24248 22210
19505 23150
22097 22791
20227 23711
23852 23034
25018 24574
22073 24002
23903 22102
20643 22623
21244 24836
22638 25976
24577 24414
22167 23264
19661 21040
21827 20283
20135 25709
22933 21491
25424 19801
24607 20352
21573 25608
22681 19829
19538 24080
23010 20999
22891 20945
26097 22031
24855 25161
25822 20874
22034 26143
23993 20098
21609 22483
21995 22375
23732 19864
25385 25612
24311 25703
21680 24410
22466 19673
22073 19898
21001 19518
25333 20160
25355 25565
24610 24536
19960 22297
25355 22023
22839 20625
21159 20652
24288 19473
22382 20987
21188 24756
21827 22657
21134 22049
22167 23510
21778 23825
24220 21880
22791 20682
22650 21576
22839 21401
21191 24800
21539 22546
21620 23753
25449 20329
24290 25449
25353 20283
20921 22418
22773 23179
20351 22430
19755 23603
21995 22919
21446 22778
24574 19890
19580 22559
22791 21499
21995 25086
25841 19874
21298 22830
24144 20867
21995 25754
21119 24906
20196 22600
22623 22943
22839 20682
20146 26181
25089 25512
22345 20987
19901 22565
25402 20334
24830 21291
23092 23845
21995 25237
24234 21424
25353 20795
20500 22118
22650 21829
25000 24037
21213 25806
20508 22604
23086 20171
22775 22703
24536 22919
23011 20155
24610 21138
23813 22146
21001 24036
25000 19802
23099 21238
24610 24367
23135 21024
23525 19960
19838 22061
23915 25751
24250 23639
20340 24243
25536 21276
23719 22021
21948 24274
26017 25751
21558 22566
23972 20195
21589 22919
23375 21234
20724 22549
21154 23654
22666 22044
21046 23549
22975 22023
21798 25073
22430 20987
24769 21770
23859 20440
22354 20154
22258 22014
25549 21216
21446 23705
24800 21724
24025 22048
25909 21096
19875 22458
21046 20873
19641 25754
22770 26207
25333 22553
24420 21177
23940 21112
24740 19792
24345 24696
23444 19540
19525 22354
20024 24987
25013 22772
19534 24412
22286 19801
21234 24574
22196 23099
24367 24002
22297 23616
25702 23594
25854 19473
22636 20283
25641 20068
23800 24063
20624 23800
22830 20983
21920 23761
25083 21597
20433 24241
23429 20501
23678 23261
25161 20616
21682 23250
19957 24462
24938 25412
19891 22699
25909 20195
22985 23099
20643 23172
21305 24900
24297 23513
20004 25703
22450 26086
23166 21149
21476 25067
23795 23733
23765 23616
20665 22666
20164 25976
23039 19782
25822 22184
19901 22666
23604 22210
22358 21515
23940 21225
22594 20823
21659 25561
21924 24987
20266 24277
22498 24237
22358 22230
24409 25187
23154 21160
23361 24844
20228 23889
23612 23737
20402 23549
23017 21998
21205 23634
22623 20246
19960 25754
21576 22466
24577 24345
21427 24225
26058 20417
21465 25923
22791 22430
23768 23800
22859 22531
21736 24685
24135 23399
25753 24302
20451 23172
26180 21463
25333 24553
24248 22146
24969 22531
22637 23623
25747 23264
23324 23704
23472 21138
24295 21538
25882 21684
22776 21610
22658 21663
22204 23241
25729 19701
19647 22466
23453 22604
19843 22776
20343 24288
21213 22549
20961 23903
21664 24504
24188 25390
24192 23640
20665 26164
22660 26207
26022 23991
22791 19609
25297 21055
24595 21119
23603 20272
21970 23017
21031 22666
21122 23172
22566 26031
25841 23372
22650 21825
21213 25561
20228 22354
26207 20406
22761 24297
20054 24954
23255 22214
23444 21295
22899 22184
22895 25652
20895 20249
22282 22093
23188 24934
24023 22657
19757 23031
24935 26082
25974 24484
24806 21668
19844 23099
23975 20283
20750 23506
25238 24631
24248 22549
20399 25074
21305 24281
23250 20774
20249 19691
23311 22652
24811 22095
23311 23358
23250 20354
20500 23151
22073 20476
23429 23297
24484 20372
21990 22833
21462 23461
22839 23866
24702 25449
23993 21497
25904 25890
20306 25251
25353 24711
26164 20135
22938 20773
21229 22466
25858 21112
25822 20356
22539 25813
21465 21349
23255 20983
21756 23179
19491 23798
22659 19764
23813 20231
24792 20709
23761 20023
25512 25273
25239 23677
21990 24574
20643 22535
23151 21659
20867 22576
23007 21463
21172 26181
25753 25618
24025 21040
23389 21586
23654 23616
24282 25049
24685 19588
19904 22214
22294 25161
19491 23250
23011 24718
23576 20785
23143 21009
22021 24906
21801 23836
21573 25754
22951 22399
23151 23120
24288 21498
23845 23624
24186 22102
22927 22146
25353 20303
24002 20241
23086 21119
21781 24241
25000 21876
23234 22563
23612 23485
22296 21366
21901 24302
20009 19768
25244 20979
22855 21448
22141 22636
20500 19540
21998 25709
24250 21573
22275 21390
25854 20493
23800 22095
21513 23150
22073 20511
20911 22566
22466 19952
23154 19778
24790 24413
24158 25608
23869 21119
25353 20299
19520 23461
20343 22650
23740 23275
22975 25512
22190 24410
19560 22358
24111 24802
24574 22118
23077 22629
24959 25631
23057 23203
22354 19930
21213 23188
20227 24497
23603 20550
23087 23567
24631 23494
20249 22095
20795 25512
21315 22609
24220 24906
21159 25754
26082 21529
20519 23461
23044 25355
24695 19770
23429 22183
22073 19792
23313 25210
22854 23800
22048 22418
23953 19930
20242 25608
22021 22531
20988 25070
24830 23377
20343 22430
25239 21112
19529 24002
23578 24237
19512 22308
20764 21978
22045 24025
25524 25466
24817 23559
20536 22583
22650 20329
23255 22024
25000 24553
21876 25729
23516 24251
21700 20249
20402 24277
22701 19839
24237 23534
25013 19566
21046 24510
21761 22957
24758 21390
21316 23429
20415 24002
22878 21327
24830 24645
25156 25275
21137 23317
23870 21450
24610 23859
24740 23303
24775 25781
20203 20458
20051 25976
21046 25813
23179 24037
25828 21668
22148 23619
22498 21673
22546 20900
22839 24238
23017 22024
22535 20857
19508 23795
25449 25384
23300 20493
21836 24220
22699 19691
25000 24631
22358 20900
21498 22687
21363 25000
21995 26114
23813 22183
22204 23099
22275 19792
21115 24861
21213 25074
21781 23659
21446 24309
24993 20283
25618 20196
23179 20283
21465 25772
22975 19957
23623 21046
22652 23293
23788 21412
20891 24332
20110 25820
20082 25067
25220 21901
24288 19949
22275 20449
23172 21031
20550 25321
21145 20909
25049 21610
24993 20961
22021 24413
22925 22121
23193 21670
21295 25168
22650 21397
25449 22167
22249 24243
21164 21756
21305 23344
25618 21115
23291 23619
21305 19870
23461 25608
20940 25073
23953 24214
21225 22430
24931 20246
24025 19787
19960 23523
23255 23839
22358 20883
20875 26092
21227 25412
21316 25772
20982 22358
21220 22430
24685 24295
20409 25168
21104 22531
24025 21470
22829 21364
20993 22776
24772 21610
22430 20299
22933 19949
23246 19816
22594 20945
23506 22184
21656 23264
23578 24002
19933 23634
23788 19753
23086 21842
22204 25772
22539 21966
25156 19887
21291 24410
19534 21677
22682 19801
24831 25909
21392 22960
24607 25725
21423 22531
22650 21526
23859 21865
22829 22652
24745 22772
20411 23176
23852 21346
20999 24510
22922 25725
21901 22888
24360 23324
20251 23479
24351 25067
25256 25735
22933 22560
23870 20507
20993 24297
22927 21138
21610 20652
22345 21138
22933 22577
22458 22778
24790 22187
23900 19618
25223 21946
22985 24288
25891 20804
21901 23531
21119 23531
25297 25342
22577 23761
25161 21138
19717 24002
23623 19837
19625 23168
23311 19801
23799 25754
21465 24281
25220 22260
20431 22963
24277 20231
21859 25161
19904 20171
21295 22576
19792 22549
23255 19894
24358 20493
25904 25929
19527 25449
23246 22261
23578 25109
23154 19801
22653 20652
25402 20905
25353 20409
21995 22892
22531 20641
19931 24144
21237 22553
22486 22049
26081 25073
26082 24217
25411 23043
23516 21122
21469 25640
24107 24192
24906 19996
19785 25210
19843 23861
22747 21998
23234 19605
19785 23889
22681 22116
21442 23604
23573 22962
19708 23098
25909 24481
20417 22666
20689 22881
23165 21138
25026 24290
23444 21037
23352 22118
23154 20715
24695 24553
23179 19927
20799 25608
24003 22116
23086 24220
25353 22261
24302 19969
20625 22645
24438 24574
23444 23011
20916 24135
22003 25508
22918 25909
24695 23831
21934 24147
21119 23620
22594 20884
19556 24769
22553 21464
21225 22466
23017 21934
23099 22210
22339 20980
22576 22128
19706 20051
25725 25754
24250 22772
23586 25449
25955 20227
24536 25049
26002 24793
24454 21854
23444 22962
22213 21413
25344 25800
21213 25813
25822 20852
19766 25239
23143 22963
20643 23852
24378 21138
20394 23818
25810 19768
23234 23140
21924 22594
21046 19798
23845 21440
21876 24756
26082 25923
22829 22048
22623 22294
19904 21207
25219 23991
22458 21668
23461 23318
25891 20313
22772 22919
20270 22073
23593 23150
24656 20891
23010 21169
20447 23788
21807 24869
23862 22577
24573 24362
22577 23936
24993 23639
22938 20075
21995 22703
23299 24836
24645 21839
23800 20509
23234 24238
20054 23903
24031 21128
19759 25774
23654 20709
21901 23619
21974 22531
21073 23510
22358 20051
20313 22418
24745 20945
20164 24192
19766 23891
21756 23264
23161 23078
25932 21272
20659 25466
20820 25161
24749 23991
25503 25618
20451 22919
22424 25966
20423 23179
21142 24718
25239 24645
23903 22373
19525 25737
24002 20608
22297 19801
22782 22553
23861 21892
22060 22549
24181 23730
21995 25108
21897 23461
25512 20608
22308 21332
20500 25800
22013 25813
19931 25608
25644 26081
25457 19722
23449 24002
21901 22418
23940 20171
20186 23264
22636 19475
24037 24025
21604 22921
23813 20274
22330 19809
22204 24906
23313 25161
21747 25114
23740 21713
21614 24002
24147 24179
23154 21895
26113 21678
21877 23188
20766 22583
22358 19738
19641 23790
22565 22023
26025 26107
23173 24685
21558 23993
25000 20804
21670 25754
23852 20786
19802 25754
23154 21514
20689 24807
24859 23470
21084 25813
23352 21610
22498 24248
19782 24277
25030 22559
24770 25283
25614 25817
22073 20603
23903 21381
22073 20445
23152 24251
22659 23187
21394 23761
22594 20870
21801 25781
20643 21046
19795 25512
21781 24097
21446 23179
20004 20744
20774 25976
20182 22375
20629 22566
21267 23619
23017 21607
19835 22666
19998 24484
26143 25027
22418 21463
25753 20590
26081 25614
23736 19558
21669 23619
25402 20073
24624 20283
25909 19543
25882 25142
23273 19840
23361 23389
22461 25512
23800 22102
26149 23394
19979 22600
23049 22957
23772 22761
21220 22286
25083 20299
21901 22975
21891 23552
21994 26207
22230 25565
24364 20195
21442 22434
21558 23360
23623 20444
22854 21478
20500 19753
24473 23751
22073 22097
20387 25355
23234 23758
24369 20529
24610 21824
23165 20107
20426 23080
25353 23313
25280 25471
22458 22345
25822 21138
23375 20061
21538 25067
21957 23297
21290 23790
25350 25362
22524 21797
19548 20500
24775 26180
19608 22671
23263 22024
23161 22919
24322 25512
24573 20956
24656 20025
25917 24756
21213 23111
21318 24237
20018 19870
23361 23825
24023 23331
23730 25161
25353 20909
23331 24080
21645 19518
22623 25772
22296 21566
20252 21275
23179 21947
20085 20891
23768 23663
21797 22265
25501 21024
21234 24954
24969 25612
19473 22833
23730 24954
22658 20126
21978 19611
19543 25772
23172 22260
21213 23761
23514 24008
19812 23479
25471 19633
19586 21993
22919 19969
24631 25108
23852 21096
24504 23917
24695 22184
25909 21498
21465 20264
20921 23812
20470 22466
21187 24412
20431 21514
24288 20266
22052 23017
22198 26143
22773 23099
22772 23203
21549 19518
22881 21366
21859 21993
22106 24900
23161 20585
21978 22265
22565 21931
23852 21956
25909 24367
22073 24592
21565 24277
23179 23360
25906 24756
20484 22466
24009 26207
22560 23539
23091 22791
24135 23074
23582 23275
21877 24171
20203 22286
20461 24938
22960 20069
25402 25512
21846 21123
24037 25355
19812 23153
20420 23859
22577 24337
23559 20927
21990 23078
25353 20891
22925 21770
22461 20249
22927 20493
20682 25754
21469 22358
22925 19947
22829 20283
22382 19874
25841 21463
21669 22666
21067 22960
22052 19611
23861 21138
22682 21180
22524 22260
19625 19647
23740 21290
21589 25834
20343 24756
21318 25772
24248 21002
23444 21549
25275 19673
21062 22645
21443 25754
20196 23961
24025 21548
23870 24802
22747 22972
19755 24473
25916 23611
21290 25070
25086 21488
23623 21819
23961 23275
19689 22297
23179 22549
19998 23078
26081 22647
24993 19770
21677 21031
20932 23552
25469 23640
24134 24954
26082 20687
22046 23903
20025 21015
23552 23034
21115 25754
25618 22657
25083 22895
21800 23330
23179 21331
25904 23648
22294 22483
22854 25909
23730 24036
23903 19930
21039 26207
24010 22531
23837 21290
21073 19518
20740 22791
24003 23993
23250 21394
23593 21839
25000 24632
21238 22919
24275 20110
24002 19874
23154 21515
23375 21547
20423 22583
19830 24484
22052 22861
25652 24366
21801 25000
23903 20979
25813 23293
21465 23646
20875 21275
20396 25608
25273 19646
20724 19538
22535 21966
25275 22048
22768 20402
21800 23836
23234 23399
24695 24037
21781 20764
20501 22576
24624 24380
24772 21138
20286 23017
21526 23634
25308 23534
23623 20315
24188 24134
20624 23852
25976 21865
21119 20652
24154 26063
23813 19874
25602 21921
23299 24884
25283 21002
23663 23594
20709 25512
20018 23510
20445 23559
24248 20891
26086 21276
22927 21966
22854 24237
22636 21656
21770 22703
21629 25512
23250 20217
22636 21892
23638 22113
26082 21605
25857 25618
24574 22683
21119 24134
22791 20080
24772 24405
25822 21791
22636 20387
24033 25195
25605 23844
22658 20624
22040 23857
23263 20987
22791 22211
25976 20457
24297 20016
21842 22919
25909 23549
23205 25049
24645 25412
25041 21670
23549 19988
19624 22531
19527 22703
23535 24160
22498 22671
25715 25412
26113 22156
23154 19943
24806 19563
21648 23386
23903 19548
24420 21499
22830 21645
19998 23317
22485 22560
23911 23264
23654 19803
20730 24412
19693 23153
21011 22354
20333 25641
22399 21538
23311 19809
25041 19840
23230 21401
19838 22358
22498 22535
24297 23799
21700 25735
23465 23350
22579 22560
23940 20993
22703 19782
22637 20283
19591 25363
22458 21441
25909 20501
22933 24322
21046 19494
25390 21160
20085 21880
24358 20062
20429 24237
22073 20103
23044 22892
21690 21358
25124 22549
22358 20016
25625 20299
21638 24244
22154 25243
21589 22583
23375 19624
23151 23078
25905 20073
20171 23646
25536 19708
25841 25280
24302 22373
23099 21392
24192 20246
23817 21564
22498 22776
22588 22348
25608 19892
22600 21645
19725 22358
25000 21127
21539 23576
24749 23866
22275 23179
23870 24412
24512 25353
26164 24368
24387 25512
22650 21561
19916 23619
21829 23825
22747 23313
23457 20457
23250 20283
20332 23761
24326 25449
23961 19982
24023 20812
21446 24413
22021 22888
21629 23788
22918 25817
19904 19952
25402 22430
20961 23603
22874 19923
25607 24728
25353 19927
19512 22830
25380 26031
22045 24574
21318 25781
25828 22212
24250 21291
22636 22044
26141 21535
19997 22671
23099 21901
22577 25223
23736 22348
23017 22563
23255 19969
23039 20241
25810 21138
26082 21514
23559 23789
25220 20980
23234 20682
25959 24243
22196 19791
21446 25086
25449 21275
21757 25976
21290 22833
20257 25017
22073 22061
25883 20867
22933 22935
25086 20749
26164 24625
25932 20771
21484 20249
22348 23311
25469 24631
22308 22560
20061 24718
24842 20329
19485 24008
24008 25362
19529 24366
21829 25355
20547 25607
22400 22703
20550 22501
20921 25909
22925 21216
25110 26031
22829 20682
22046 23733
20969 22358
25813 21604
24573 21046
20196 24025
25943 21690
21610 25362
19923 22911
23205 19518
20286 24412
23154 20126
26201 21747
25810 22065
20259 25722
25857 19770
22963 22030
25822 22021
24560 19816
24237 20884
19605 24225
24023 21605
20350 22297
23712 22086
22458 21753
25114 20411
22348 23704
19692 20652
21861 22553
21037 26082
22658 21024
23154 21216
23618 20509
20921 26107
22747 20493
23549 22930
20550 22418
25000 21875
22358 22134
25049 21276
20167 25608
23883 24789
22857 21119
23603 25073
20009 23358
22703 22118
25372 25412
23165 20154
24220 23790
23733 21494
22600 19543
22097 23461
22636 21413
23314 23659
20034 22985
25512 25086
25909 23057
21906 22466
20598 22297
25822 21683
21806 24756
24250 24037
21444 25715
20484 22373
22650 20682
23031 19618
23960 19768
21845 24161
25822 20497
25781 19885
24624 19717
20110 22014
21770 20774
23099 23097
23852 24275
23736 20607
21778 23603
20171 23682
20799 24412
21607 22666
25355 22373
21119 24396
25220 21529
25402 21642
22791 23619
23234 20987
22275 21697
25916 22761
21413 25412
24909 20208
21756 19487
22791 20165
23154 19952
23293 20616
25909 22400
22650 21401
23465 23510
24830 22629
23461 25114
23246 21468
19473 22297
22382 20497
21526 22963
23907 23911
20500 22281
25781 23866
23297 20808
22829 19753
23135 20832
21180 23479
25029 26207
25608 25454
25239 20993
21773 23297
25810 20283
26081 24008
20429 25275
24052 24413
19913 21901
23360 25092
22458 21525
22487 21186
24250 21901
23903 22970
24157 24179
23086 20893
23793 20987
24133 20457
26143 24545
24769 24638
24003 23911
24233 25015
21901 22531
20116 24297
25459 25817
22658 20795
23461 23619
22636 20988
23193 21901
25449 21002
23234 21401
24624 20296
26152 24160
21883 22466
21332 25972
22193 22770
22594 21529
22594 19638
20272 22418
22297 21354
24592 22560
23638 19924
23027 22935
23205 24861
22052 20249
22579 19641
24507 23594
24971 25772
26113 22194
25270 26107
23680 21597
23852 23762
21225 23647
25233 26020
20351 23678
22933 19901
24695 22260
23616 23825
19489 24134
21550 24251
20865 21358
24250 20186
19812 25512
25471 23832
24234 24806
21513 22919
19923 22382
19649 24984
21376 24277
24631 25772
25262 21538
21122 22532
20644 24309
24631 24413
25916 22085
23767 25828
23983 23350
21131 25402
26164 21670
22854 23531
22382 20411
25822 21566
22532 20195
22859 23747
23800 25074
22040 22962
25831 20004
22213 21829
20675 24366
25909 21229
22498 19887
23151 21648
25240 25754
23205 23410
21098 23250
21141 25813
21187 24509
26082 24911
25828 24884
23001 20447
22040 24257
21993 20873
22925 20922
20729 23620
25909 20932
25411 25772
23795 22881
25174 20080
24438 22919
24364 21138
22636 19529
26141 20413
20727 21119
25086 23594
24311 20227
21104 23179
21188 24025
22839 23706
24550 24906
23263 20529
25512 20372
19869 25754
25290 25001
23871 24237
23250 19660
19764 21549
21876 22531
23896 24800
24248 22067
24772 21331
24288 22116
20552 22265
22922 21946
23869 20173
22106 26081
21995 22795
24756 21610
22985 23646
22581 20682
23205 19497
19489 23889
22650 21770
24631 25449
23086 21134
21213 24848
22282 22957
23661 21645
21154 23525
23400 20154
21469 24023
20578 24160
20055 24023
22577 22703
23234 20299
23161 19993
24157 25270
21112 24756
24574 24096
21906 23552
22023 22833
19579 22963
20730 21993
23154 20545
22922 20550
25810 19816
25461 26207
26133 21143
24806 20773
25174 25126
23536 20299
20895 24718
22220 24248
22532 22146
22682 22652
23194 20283
23852 21913
19473 25161
22296 24685
21073 25223
23800 20283
23017 19894
19505 22656
21332 25772
20500 20343
23205 25487
22927 20274
19781 24685
20689 24134
22594 21427
21213 19538
21206 25187
24610 21440
20321 24080
23457 21986
22539 23993
22082 23852
25283 23372
22535 20195
25858 19816
20709 22641
20547 23461
20832 23172
23011 25608
25882 25009
23993 25772
22399 22294
22539 25607
24025 24954
22962 22919
23246 20789
22577 22645
23812 20785
23444 21901
25822 21681
20720 23099
22213 21295
23566 20652
20025 24574
20688 23176
23972 24638
25512 21138
25858 22549
25109 23844
22097 20873
25275 21366
21446 25067
19913 20305
21318 22476
26180 23648
22594 21892
24536 24541
23498 19682
23011 25858
19748 23264
20386 25490
22659 25909
22458 24756
24402 22042
23064 22559
24663 23623
23098 20171
22253 23889
20820 24997
23375 21945
25822 24826
24574 23684
21836 24741
20179 23297
22919 21127
23410 19809
23172 22373
20916 25223
21705 22891
24327 19782
23753 26020
25333 21610
25751 26058
22213 21024
23634 24241
25402 19881
21633 25508
23593 19861
25074 21046
20252 21291
21586 23410
23234 21207
22628 22778
21877 22559
20629 24741
22067 23479
21539 22265
25353 19682
21927 24520
23615 24624
23940 23639
22768 22560
20358 22528
21656 22975
24831 24719
22881 25120
21995 22957
20272 24237
23800 19638
21046 26207
24624 23069
23869 19782
25932 20110
21576 22776
25137 26082
25916 20014
25013 20597
25449 19691
19575 19768
21970 24412
24993 19873
23091 21770
23623 23789
20167 23813
23852 19873
20692 22418
22498 21708
23444 21313
21318 26207
21015 20372
22600 21138
23166 23552
25822 25490
23135 22113
25180 25909
21275 22154
24023 22560
21993 21295
21645 22466
22348 25100
21934 23510
22348 22891
22213 21945
24512 23224
23099 21590
25508 25774
19979 23845
20194 23429
25909 22554
22636 20659
20356 25275
24692 23536
19901 22919
22559 20267
24248 23586
25471 19682
26017 23578
22854 22531
24519 25067
20555 25479
25753 19553
23869 20195
19755 24225
19520 23634
20190 22671
25142 24297
24160 25412
25390 21042
22345 20616
24003 20493
25352 20903
25854 23331
24656 20376
22003 25976
19900 25800
20343 23472
20018 25067
20500 24420
24993 23358
22330 22196
20945 23293
20597 23082
23903 22065
22213 21220
23263 20883
22581 24214
22458 21237
19775 23634
24519 24250
23800 21629
20431 24789
24325 23011
23382 22963
19901 22935
21037 24987
19795 23129
25652 19677
25822 20658
21213 26207
21149 22663
25831 19633
24536 23891
20590 24220
22213 20766
22650 19943
19748 22919
22052 25251
22773 23536
24277 20608
20332 21993
23103 20883
21122 23772
22308 22085
24792 21313
20927 22963
20376 22776
20545 22284
22577 22776
23161 20217
22650 21795
25909 24275
22283 19884
25353 21600
22919 19996
24023 22082
23044 22957
20916 23382
20274 23264
23852 20371
21046 24008
21412 23264
19625 23461
20536 23187
22293 23859
21995 23619
25119 25575
21076 23891
21648 21632
19525 23444
20786 24302
22650 20447
20228 22682
22650 22373
21394 23099
23444 21609
20832 22687
22628 22671
23263 23844
22354 21978
24938 24413
24512 19779
26081 23080
23444 21830
21801 24983
21476 25161
19618 22957
22576 19682
25000 21160
23099 22190
20442 21770
23761 23324
21491 25966
21317 23993
24023 19885
21295 24277
25828 19975
25083 21610
22061 23552
21376 24412
20299 24756
21842 25161
21945 22623
23099 21835
20025 24592
22400 24574
25641 20494
19624 22354
20062 23187
20445 25976
22294 22576
23559 23128
23193 20246
19589 25187
22183 22888
24296 21807
23210 22563
26113 19711
21228 19873
24663 21488
20834 25251
24248 23594
26082 21800
21791 24807
23176 21610
22340 23264
19979 22623
23972 20823
24060 20296
22658 21354
25010 20980
22830 21978
23314 24147
22899 19582
20921 23845
24351 25512
25625 22086
21412 22466
23516 20171
24663 23043
19606 24036
23246 22424
23903 19843
22424 24718
23677 25275
23151 20650
24322 21610
21901 25166
22899 20508
23972 23549
24250 24400
20596 24987
25244 23758
20356 24756
21936 25187
21213 23523
19525 25781
25490 20776
23560 22663
20500 19695
21073 23264
20324 23485
23444 23275
23099 19647
21920 22354
24288 19982
19491 24225
24367 25161
22650 21275
22546 20372
25831 26104
20803 22358
21993 21632
19642 25781
20196 19870
23275 23410
19880 22281
23103 19753
20018 23604
24325 24573
23003 23609
25831 21499
23165 22184
21189 23619
20909 22703
22116 26114
20804 24931
23194 22184
23767 20730
21995 23153
21589 23176
21677 20931
22498 23017
24850 25665
20509 22284
24023 22554
22650 21605
21469 23078
25909 21835
22196 23940
19490 24297
19791 20926
22650 21238
25722 25834
25244 24454
24984 20171
22701 21119
23375 20283
25402 22016
23135 22577
21633 25976
21101 24756
24302 21610
21761 23958
23234 22373
19914 24023
23091 23003
25030 22549
25753 20384
23935 23753
19785 22671
25283 20069
21172 23891
24695 20332
23099 20186
22652 23704
20368 24410
24484 24450
25941 22023
22594 20014
23911 22881
21290 22345
22925 20785
20186 25067
25391 23744
23027 22230
24248 19930
23940 19545
25584 20501
20895 23078
22911 23684
23659 21412
20299 25772
21134 21046
24157 24481
20988 26180
23800 22184
21442 25781
20272 22776
22963 20007
23234 21381
22650 25753
21164 19613
25822 22333
23297 21000
24288 24988
24993 21138
25822 20246
21761 23619
20720 22919
21731 24413
24500 19688
21610 25772
23788 21610
19793 22549
22535 19874
23154 20313
22193 22466
22833 22214
22190 25675
22095 26181
21869 20652
24631 25114
23444 22067
25471 20283
22399 21427
20066 25754
22773 23150
22327 20820
22189 25067
20176 25753
25909 20876
24237 21413
22682 20909
25905 20043
20545 25972
22358 20452
22594 21291
20867 23825
21465 24237
21566 23790
25753 25255
19916 19518
21244 20652
21446 23375
25001 23163
23154 23513
22286 22260
22461 25355
19765 22566
21227 22829
24574 19949
23943 24410
22895 24237
19613 24412
22450 25161
22565 21127
25728 25754
23691 24741
22003 19661
23299 20652
24993 21869
23991 24160
21792 25813
24255 24884
23135 21747
22657 24708
21172 24237
24002 19510
24297 19691
22331 23179
26149 23079
24266 26164
25976 25070
22253 22881
23093 21548
23869 23275
19560 25781
25363 20068
25800 23745
23780 25512
26017 23460
22116 22511
25156 25251
21995 22687
21761 23494
24133 22919
25128 26164
21941 22888
23728 23640
20249 22085
23275 23638
24536 25212
23234 19892
23659 23324
21102 25608
21122 23099
23299 24192
25114 20884
23995 25909
20789 25626
23586 24859
22458 22093
22859 23582
22450 25909
23001 21956
22626 26164
23179 22373
23489 21127
22049 25976
23612 26181
22095 22919
20429 25781
22650 22118
22142 23844
19930 25608
24745 20987
24032 25962
24144 20018
22919 19860
21160 23646
22594 22373
25728 24134
23669 21290
22227 25813
23179 20291
22339 22333
23903 20116
22034 25848
24010 19494
24624 24228
21446 24144
22108 23297
22040 21096
22594 22772
25411 22972
22839 24584
22656 21610
24023 21766
23457 19861
19536 21973
26149 25027
23429 19756
24297 21451
23314 24808
24134 21670
25822 23480
20356 23179
22985 22142
24462 21138
22097 24938
24139 22657
23852 21119
23103 21451
22287 21921
21119 22919
23360 19611
22938 22440
21539 23099
24325 22275
22919 21766
22933 21098
21275 22703
24248 21073
25013 20283
24631 26164
23313 23733
23573 21276
19483 23297
24752 20507
22579 20196
21122 22830
19489 24507
22080 22990
23767 22214
19852 25607
24631 25909
26082 19757
22052 25015
21001 23623
25244 25607
24565 25488
23767 20493
24367 24861
22829 22044
25449 21632
21295 23761
22736 21119
23845 21290
23154 21568
23154 20931
22636 20759
23300 19770
25067 23340
20429 24769
20445 22772
22985 23891
24610 19628
19520 22791
22296 21468
25402 23152
22461 22795
19482 23602
19914 24036
25753 20760
25512 21040
20054 22960
20657 19518
25200 23608
25333 20865
25753 25553
20196 22531
20818 24560
19583 25772
21298 25772
21046 25150
24811 22583
23502 21119
24248 21589
24695 21316
23098 21138
21794 24251
24405 25114
21468 23017
22933 21747
23099 22118
21539 21993
23518 21138
24954 19924
23179 21842
21901 22911
20246 24756
23950 19591
25909 24037
23800 25073
20402 22975
19710 23078
21791 23179
22839 22657
23087 25161
23444 23602
20249 22117
23788 23730
23297 24413
23444 22275
20356 23852
21736 22458
25781 20870
22839 23534
20945 23693
25593 25916
20440 23602
20865 25174
24277 21610
21561 22636
23444 20351
23313 23678
21326 22358
19957 23619
19910 23250
19791 23609
20249 22560
24790 23389
23953 19830
25000 22333
25308 19628
25161 19605
22935 23090
21446 24884
25536 20820
23788 20376
24325 21286
24610 23844
22854 20835
23444 23043
23275 25109
23111 23866
23246 25028
22839 22118
19491 23891
21073 22671
20500 20423
24248 23559
25000 21609
24192 23358
20280 19661
21180 24366
23311 20891
23047 24462
25310 21228
22933 22064
21728 23461
23086 20014
23263 19873
25575 21313
23098 21656
24250 21826
22927 21998
21046 22566
19475 25909
23161 24592
23852 20186
21993 21216
21332 23523
19548 22911
21317 23090
21246 22651
23382 21498
22498 24243
23099 20230
23099 21610
19922 23171
25856 26031
22839 20616
19958 22399
23993 19484
22623 24160
20306 22546
23188 20251
25239 22604
21540 21275
20921 23375
23740 20246
21491 23678
19637 25754
21096 23163
24938 20155
22773 25449
20051 25362
24188 19553
24631 23761
22782 21770
25781 20303
25161 22044
20217 22921
22658 20138
23086 22773
20570 22776
23179 23751
23753 20315
24358 24367
24592 23594
21494 23610
25800 24380
22086 22719
22430 22118
23424 20228
25420 21302
24861 20231
22198 22466
22911 20173
23182 24685
20182 24297
25774 25715
25641 23542
21756 22358
21102 22531
21920 21497
26180 23726
21549 24297
21174 20931
22021 24756
23852 23188
24717 23891
21191 23593
24089 23726
23165 22085
24188 24413
23293 20171
24565 22379
22859 23825
24993 20189
22108 25363
19816 25754
24160 22970
20500 22294
24023 20932
22308 24795
21394 24574
22659 25283
20085 22230
23255 19996
19499 23866
24512 24836
23593 24934
25160 20515
22296 21568
19874 20652
23429 23043
23889 19682
25333 21010
23510 23470
23429 20283
25000 21119
20442 20922
25909 21313
21412 24718
25030 24937
22348 24025
23099 20274
26180 25506
22196 25449
20720 22511
24512 24811
23263 22102
24060 20811
21465 25355
22553 23531
22839 19605
21290 24025
23324 23176
26097 24217
23852 21610
20665 24277
21572 25362
24749 23961
25244 21119
24749 23383
20031 24311
24954 24217
22629 25754
21934 23264
23007 22373
23375 20729
22354 22148
23611 20068
24237 21382
21876 23800
23444 20968
23736 19840
19948 23634
23246 21875
23680 21747
20961 25362
20965 25168
23291 22975
20249 20227
22650 20016
20988 22430
23151 20315
25156 19999
23896 24366
23044 24402
23576 21404
24192 23188
22061 22333
23263 21584
23234 21514
22637 19529
23429 20931
19606 19870
23890 21119
23929 21276
24574 21670
23848 22919
20823 22833
23677 24192
22626 21213
23915 19812
24983 21276
23044 25168
23238 21470
22791 21636
19677 23153
22212 19538
25754 22044
20467 24997
22220 23179
24656 23943
21428 25754
21616 21924
23172 22560
23536 21138
23361 24237
20501 24002
24060 24059
22594 20171
22196 23444
19824 23609
22891 20570
19556 22284
21610 22888
25390 20545
19791 24808
21376 25781
25727 21610
24695 20451
22703 22892
22524 20171
20126 22776
19534 24390
24025 21734
24025 22146
23704 22963
23444 24631
26143 22373
26104 25146
23154 22128
20500 21705
24983 19994
25625 23331
20415 24412
24770 25512
21875 23929
22839 25208
23889 20945
24610 23044
25916 21295
22204 24277
25854 24290
24144 23799
20368 19816
23680 21413
21134 21052
22535 21119
24057 22184
25220 23010
25549 19706
19538 19792
23450 20283
21978 23902
19624 24473
22141 25067
23852 23480
22327 25362
21995 23620
20415 23429
24237 23594
24274 25412
23238 22653
20598 23936
22629 23958
23516 20493
21498 24025
23915 22423
20426 25709
24749 23937
26149 22539
23187 19651
20500 21225
26152 21024
25512 25073
24937 24297
19650 22382
23444 22373
19766 21149
19868 21457
20046 25813
21149 23358
25244 20682
19766 25904
19613 23179
19791 25251
20500 20351
20024 23619
24610 22294
23003 25412
21756 22528
24008 22185
22498 21206
21275 22430
22331 23172
21465 22957
21321 25073
23845 20272
21995 22776
19491 23410
19513 25652
25116 25270
23788 19943
23712 22042
21995 23859
21358 20376
20387 22919
23087 24906
22532 21138
19868 25608
21302 24402
23427 21599
25906 26083
20832 26180
23677 25161
23005 24161
20340 23078
19791 21836
20351 23350
23234 20641
23638 24251
19560 23619
21797 24756
20358 22776
22747 20754
21735 24302
19624 20652
21526 23859
24903 25471
25010 20195
20720 22434
21491 26020
21119 24237
24718 21610
23744 23790
26017 24179
25943 25299
23086 20283
23939 23090
22874 22683
24577 24938
23654 20823
20500 20321
22228 22373
23103 20958
20688 25275
19534 24025
22938 20494
20692 22430
24663 20018
24315 23844
22699 19884
23086 22184
22594 23656
21873 23798
22663 24237
22294 25412
23453 21180
20500 24789
21187 25312
20092 23360
20921 20249
21213 22553
20873 22235
20227 24374
25333 21797
21001 23733
21735 25754
24025 23706
25353 25174
24935 26096
25402 24491
25229 25412
25110 24413
22284 20195
19838 25754
20062 25333
24237 19996
19986 25828
23263 21366
25420 20283
25000 20789
24947 24775
24624 23261
21700 22358
22985 25618
24462 21313
23870 23429
19948 25976
22553 21146
21901 22957
22073 19905
21614 23375
21700 20652
21891 24756
24749 23291
21705 22919
19621 24685
21966 19711
22486 21069
23234 20246
23859 20650
23047 24718
22539 24366
22461 25390
24178 23187
22658 21509
21514 23619
22535 19957
20246 25754
23263 21610
24830 21491
23090 21209
23852 19949
26096 23314
22839 19782
24010 25608
21645 25067
23536 23461
21901 24413
23576 22157
20138 23176
23154 19649
22775 22776
23991 26031
24181 21901
21498 25070
21073 23604
23176 19840
23163 19809
23205 25412
20768 23961
21656 25355
21936 25813
20138 24484
25703 19530
24248 19673
20658 26180
23077 21096
19982 24413
22154 25976
22773 24023
25854 22659
20921 25251
21901 25848
19556 23582
22355 21864
20659 23078
20487 23813
20135 24484
20116 26107
25308 19602
23733 20299
25834 25248
21990 24412
22637 20195
19649 22418
25083 22563
23080 21276
24749 22450
19555 23623
23940 20607
25607 25070
20874 20652
20249 21632
20834 22308
23161 23852
19870 20682
22650 20417
21761 26181
25565 24287
23039 21443
23250 20195
21427 23264
22583 19873
21740 24507
21119 24574
25262 23372
19877 22833
25013 21901
26017 21187
26098 24368
25626 25187
22128 25754
23903 21160
23168 24413
24610 19803
24717 24987
21875 26083
23761 25813
24288 22184
21188 20442
22275 21450
21364 22356
22073 21752
23375 20749
20182 24311
25503 24059
24211 21119
21901 25237
22206 25367
23092 23311
23001 21684
24610 23848
22466 20241
21469 24025
25355 23634
22925 19606
25909 21112
24249 21740
23603 19860
19922 23382
20921 23099
22782 21276
20789 24756
20916 24663
21468 24346
19633 23634
24734 26020
20010 25540
23836 20154
26083 21408
21009 22911
25828 24637
22249 23977
20555 26115
19993 22859
24624 24008
20025 19870
21829 23719
22553 19938
23437 21515
24080 25362
22636 19701
23154 23751
23209 21276
25575 20227
23188 23704
24592 22214
21491 22345
21225 24718
19830 25705
25353 19673
24770 25754
25909 21412
23457 24791
22553 21478
25512 21632
22650 21934
25916 25771
24512 25754
24250 21645
25468 25027
20699 22565
23263 22118
20227 23610
23045 21138
19637 23733
23427 19540
22275 19671
22546 22044
23263 21401
20834 25321
20909 24237
23910 23303
23576 21632
25841 24238
22609 19648
23664 20061
23753 24934
20789 22671
21240 24366
20429 22418
21589 23099
25449 21267
21394 26164
26017 21859
24179 25412
21227 24412
23444 19816
21172 23733
21670 24277
19717 24900
21187 23510
20055 26180
22735 22657
23234 19960
19949 22888
24037 26086
19560 22957
23506 20873
23234 24096
20873 21290
20305 25355
20296 23552
25357 25962
22839 19691
25916 24677
19771 26180
19625 25813
23154 20195
21112 22957
23429 21842
21001 22891
23632 21147
22412 23386
24250 24806
24550 24861
25390 22136
24234 19803
25142 26114
20024 24248
26180 21138
23203 19809
19606 23264
21138 22666
21614 23193
21115 24769
25909 21031
23836 19548
21636 25243
25753 22535
25449 20027
23099 21733
24135 19787
23817 20884
24250 21332
23929 22340
21498 22778
25030 23043
22327 19768
25909 21920
23135 22348
25010 21576
21781 24072
26002 25776
23852 22128
22450 24237
22636 19839
21638 23977
24859 22683
22594 23460
20629 19868
21119 25362
21824 22265
23903 19605
22747 21229
22859 25781
22261 23654
21965 22466
22583 19756
23940 21127
20916 24057
20324 23479
24037 24402
24449 24900
23011 21818
25909 20246
23091 19771
24808 19722
24695 21071
24192 20387
24023 21656
26097 23839
23234 23513
26002 25813
22034 22297
19975 23758
24405 25754
19512 23813
25308 22067
24288 22652
22204 25909
20607 24708
24250 21381
25449 19695
24002 22761
24311 19748
23205 24624
24493 22260
22073 21697
21160 22861
24771 20690
20641 25754
21842 22311
23135 20411
19949 25608
22487 19690
19968 22604
24181 21138
22424 24244
26179 24296
20459 24297
24631 23153
23560 21024
24002 23866
20993 25049
23150 22604
23903 20283
22559 23311
23264 19996
25308 19979
23358 23704
20500 25831
24993 23497
21450 23461
25308 21690
23261 23711
23092 25161
23516 21920
26043 26114
23580 23559
24023 23744
24297 19682
23634 20702
24695 19952
25722 24237
22650 19782
19606 23317
25220 22141
22927 19689
23788 21031
22400 22430
22658 20729
25220 22184
21566 25197
19795 21993
25822 20832
24512 23891
24325 22118
24752 19792
24806 25029
19737 21924
23818 25355
21828 24008
20085 20195
22330 20870
21526 21770
25027 25754
24249 23324
21102 25781
19791 20590
23940 21835
23005 23360
23940 19979
25514 25976
25882 21973
20080 25187
21262 25412
22052 23852
19904 22102
21648 20283
23747 21275
22559 21151
23135 22041
26082 25256
23106 21463
22791 20263
21885 23297
22600 19691
24063 23179
23654 23594
24702 22531
22594 20865
24677 22630
21238 23078
25909 20321
20194 25390
21459 24277
24749 22653
22485 21381
24047 20073
21681 23638
24519 25449
22636 20786
23609 22963
20307 22701
22174 23669
22287 23297
19738 22430
23600 23111
24360 24008
19722 22919
21826 23790
22331 23350
22594 21262
22498 20500
25909 21568
21424 23972
21876 22430
23151 24906
24772 20283
21839 21275
20968 19870
23837 24987
20069 25754
20272 21497
24695 19648
24569 24287
21995 23176
21228 21189
21924 23078
23011 23230
21656 24025
19500 22458
24275 24574
23818 25540
23389 20870
23394 25187
26207 21497
22021 22892
22400 22919
25536 24692
21459 22483
23263 20372
24449 25781
22650 20865
22275 21169
22358 19536
24826 24002
24297 23616
24756 20372
21469 22795
23745 25412
21901 23479
19802 25015
22412 19770
23852 22340
22609 25828
21901 26014
21468 22975
21318 25904
22636 21547
21498 23638
21734 23646
22286 21734
20140 23891
22531 22113
23929 21515
25000 22021
22577 22627
22609 21892
22358 20802
22747 20987
22636 21275
24933 25781
23099 21609
20509 24025
24610 23275
23086 21234
25854 20135
24807 24409
22682 20983
25030 23092
20916 25161
24789 24906
26086 24368
20500 21229
23250 20945
22498 20766
19930 22583
25691 26207
20803 25641
21605 22358
23086 19770
20590 23753
22935 20241
21638 25449
23767 23639
22528 20116
23845 22260
20965 23410
19870 20195
21457 20690
20497 22888
24288 19637
21210 23993
25355 24217
24632 24413
25353 19608
23836 21159
19649 23638
20774 24954
23654 25565
23733 21988
22791 20466
25457 21119
21901 24802
21513 20764
22031 22623
24188 25449
22430 20371
21791 20857
26201 20376
20140 22650
24192 22604
23767 20616
22498 20315
20823 25412
22193 24412
22933 22117
25618 25323
19527 21993
26058 20278
25449 23331
24325 20988
23193 20283
24792 23324
23171 19884
22461 23179
22438 20672
22106 25275
19489 23264
24610 23640
23209 21096
22080 25010
23166 26081
22839 21978
22423 22627
21995 25114
21037 22524
21689 24574
20674 22594
23740 23753
26097 21024
25000 22041
24358 23446
24296 24817
25000 21561
21151 26117
24817 21680
23479 26030
22747 21901
21632 23610
22497 19798
19904 19618
23740 19641
24409 25540
23461 25754
22933 23314
26141 23939
23099 19545
23661 20550
21648 22963
19498 22286
21122 22297
22566 23778
20629 23090
22594 22970
22476 21102
22881 24741
23313 24462
23234 20608
23154 23090
23047 23176
20429 22975
21998 24277
21119 25466
23461 21205
24133 20426
19766 24836
22327 22549
22535 25715
23358 24072
20799 22666
22594 20283
22650 19630
25916 21220
26082 25978
19708 24412
23795 24241
26106 25929
23719 23386
20834 23891
20442 19816
25010 24789
20500 20357
23879 25703
21551 22424
25160 21901
21538 23704
25540 24214
20921 25070
25828 21497
23730 24281
22683 24906
25083 23480
24685 21272
23903 19540
24296 25412
23091 22077
23640 24237
20688 23800
25933 24968
24944 21119
24969 20400
22178 24251
20987 25070
23801 20895
24508 24214
22031 25412
25813 23497
22559 19688
23375 20983
24250 25110
24831 24297
24971 20016
22839 23991
20519 23634
24695 21610
19652 22546
25083 22228
23801 24450
23461 21301
21781 24080
25240 25781
22579 19556
23983 24288
23800 23991
19795 22966
19868 23078
25083 21875
23812 20411
20082 25608
25810 22184
20028 24987
22758 25251
24025 20246
21648 23069
19560 22354
23234 19787
23263 24214
25916 22652
24692 25858
23299 23165
26020 25412
25018 24109
24449 25735
21589 25355
22747 22204
23620 21978
19874 24277
21298 21846
23972 21119
21589 23510
22052 22650
21554 22919
20895 22960
21244 22600
20307 23654
23234 21670
22213 19739
23578 24808
19766 24134
20560 21404
23291 21046
22380 23844
21559 22354
22348 20249
22424 22212
23151 19633
19502 20909
22758 21046
23261 23293
22977 23360
22436 22532
24983 20447
25831 23801
26022 24584
19837 25813
24969 21643
23027 21135
22623 23841
22650 19543
23010 20875
22891 22559
23940 22121
19768 24769
21134 22187
24752 25251
20499 24413
24192 22424
22034 22782
20916 24277
21966 26014
22476 21681
24277 23857
21446 23410
19880 24238
24830 22772
19538 23176
21240 23825
22623 21645
22275 20746
20429 26082
23950 20056
19473 24574
25652 23578
20730 19904
25259 23594
24248 21713
23017 21229
24821 21138
23389 23360
20196 22284
21876 25390
22782 19816
25753 21938
20251 24008
22532 22554
19755 22435
22579 21795
23154 22294
22854 21349
25402 20592
20857 22772
24806 22531
22933 21010
22461 25468
25909 24052
21962 20643
20729 25612
25018 21807
23255 25073
24769 19753
19766 25308
21791 20702
21761 25598
21037 25251
25168 20069
21682 23680
23234 20313
23205 23609
24610 25639
22747 20429
24060 21648
23313 24756
23165 21275
25244 24935
25510 25608
24302 21138
25641 23733
24402 23566
22213 21246
22830 20296
21446 24194
20031 23510
25909 24449
21770 23150
23429 21998
23179 21440
25088 26082
19947 23264
22650 20351
23103 21382
24031 22023
22511 21470
23552 21568
19556 23619
23429 24366
24947 23549
20324 25894
21824 23172
19792 25976
24325 21188
21313 24036
26081 24518
23179 21835
20426 25976
22296 21941
20252 23011
23209 22559
20155 19628
20343 24025
25737 20209
20905 22791
23485 21892
21071 23078
23889 23297
20573 23634
20857 25508
21363 22666
22579 22878
22933 22772
21363 24277
21037 25774
20812 24984
21465 21962
22457 22086
22839 23744
23615 24484
23151 22650
25000 23751
19492 26020
19812 23552
25905 24194
23099 23296
22535 22186
23983 26081
21324 23360
23179 21119
24234 20195
21498 22511
21620 25813
19802 22418
21970 23845
21498 25067
24206 20363
22535 21290
21148 24008
23848 21901
23218 25715
25904 25976
23151 20449
24396 23559
20061 24954
22919 20749
23654 22128
23634 20165
22450 24811
22623 22663
22535 21724
24139 22115
21920 23203
25449 21891
24206 20501
19901 19870
25402 19492
20774 23534
21046 23993
23311 22962
19930 23238
19490 22636
23983 24036
21770 23552
23977 22424
20876 25754
21119 25461
20834 23733
23788 21138
21196 25754
21143 22549
21892 25449
20417 23238
20688 22497
24512 24072
21424 23099
25367 20857
26104 24741
23859 20702
23940 19884
22327 23461
19904 21067
26207 19829
24504 25904
22213 21154
19606 25067
25540 24247
25000 21974
25702 25106
19791 22922
19803 22919
25018 21676
20500 22073
25244 19606
21669 25772
25781 20195
22776 21741
24608 24517
21614 25909
24772 21427
23800 21119
20332 25754
22652 24025
23736 21670
21142 24237
24052 24718
25390 22023
22830 20890
23017 22294
24565 19682
24624 21741
21778 22576
19590 22358
21333 22424
23154 21599
22768 21313
23194 21119
20922 23552
22450 23099
24139 19529
21246 22286
21876 25772
21128 22090
22358 20195
24025 21494
22253 25468
20140 25308
21154 23619
23092 24708
24938 21773
20182 22770
22791 20125
22156 19691
23154 22683
22962 23264
19900 21210
23179 21941
21995 24984
22933 23010
19824 22565
24409 24302
20182 23552
25273 20774
21901 22284
20013 25000
20500 20536
20812 23945
19722 22297
21096 23264
22424 22297
19631 23461
21188 23800
23154 20296
23578 24859
19751 25715
21559 20652
22400 25626
23485 19812
22653 25355
25466 19860
21154 23733
22650 19803
20833 24718
23940 20643
25220 23602
22348 22682
23135 22021
21244 23194
20431 25607
21558 22358
23179 20884
23250 19860
25275 23634
23263 21207
21680 19870
21724 25772
23935 20051
22067 23693
22249 25420
24282 25817
23358 23264
22652 22919
22458 20445
21228 25046
24360 23593
21119 23812
24610 22086
22204 19611
23234 20852
20116 22833
26171 19869
20905 23461
25729 20299
21797 22960
23935 24255
20909 22168
22430 20616
20684 24248
21076 22957
22011 25976
25909 19816
24560 21138
19949 20652
22086 24147
20965 25030
22074 25813
25501 20018
25828 20004
21465 23825
21836 23161
22450 23510
20016 22666
23972 23991
19548 20764
25916 24806
23297 23497
21238 23238
22975 19637
26058 21576
21732 24160
22658 19812
19505 23646
25449 20313
25353 21756
25041 21490
23625 20222
20048 21993
23664 19556
20081 22559
25857 22204
19475 23172
25659 20051
23861 20283
20034 24179
23150 23331
22874 22423
21009 22483
24695 21859
22681 25074
26045 20009
24180 21594
25737 21845
23761 20501
22747 22253
24250 21892
21115 24900
24345 25540
21228 22791
23261 24592
20834 22925
24749 21316
20321 22528
24631 24756
22483 21382
20873 24906
22747 22400
25353 19701
23664 19490
20423 23845
25229 22260
22348 20508
23667 23386
19766 23506
20789 24277
24089 20811
20070 25703
21119 24002
24586 24861
24923 25608
24685 22560
24322 21720
24072 22604
21707 24160
23386 24861
23187 20372
25402 25015
23179 21234
25220 22450
25161 19628
21111 23859
20467 22833
22747 20246
26133 21186
23461 22250
25561 21283
22424 24462
22193 24144
24685 19702
25882 23624
23011 23929
26017 21134
25402 19792
19475 24366
22141 23238
22636 21137
23234 23762
20792 20296
21046 21275
19518 19809
24250 19969
22594 20786
22031 24288
21228 25641
22776 21078
23099 19753
20536 23150
23712 22184
25124 23594
22579 19996
23098 22224
23099 20470
22261 25781
23995 25013
24610 21549
21990 25772
23179 19768
25650 26143
22286 20231
22193 26143
20054 25781
19922 26020
24060 21669
21901 22892
20013 24462
19755 22636
23576 21568
24811 19682
24610 24976
22776 21138
25858 23594
21962 19782
21234 23719
25753 19915
23732 26014
19880 22791
23852 23372
24997 24274
25828 19915
22535 22118
23680 20832
21901 22930
21465 24997
23017 20873
23166 23889
21205 24834
24025 19873
21734 23619
25505 26180
21011 23852
23825 23372
24993 23566
20092 19768
23098 21024
23482 23559
24806 21856
21001 24277
21046 19538
24010 21156
21876 23098
22652 24225
23795 23179
20508 19682
23135 23047
24802 21366
22629 22531
20340 23646
25841 22773
23179 21656
24449 24756
24491 25046
20018 25834
21791 25083
24749 22962
21680 24134
22927 21901
19960 25608
23300 21610
25161 25270
22358 22407
24080 21366
21901 23045
19824 22919
22577 26096
22650 20196
23680 24124
25353 20536
19949 24861
25652 21965
23654 21302
20274 22960
20062 25909
22682 26063
23238 20867
22021 25754
23261 24002
25220 21240
25512 22023
19824 19611
21376 22629
23234 20566
25665 19608
22470 20597
25568 20251
25402 20290
23246 25018
22658 20173
20874 24718
21154 24346
20251 23541
22913 21276
22869 23517
25100 24274
20249 19768
25909 19637
22331 22623
24250 20720
23654 21366
23300 21901
25353 21189
21590 24366
22213 21781
25618 25593
24519 24807
20643 22919
22577 23737
20483 24574
26152 22577
24188 24906
25608 20231
22985 23836
22833 24274
21995 24390
21539 23817
20252 19682
20818 24346
21046 23859
23800 22373
20607 23619
20252 20138
21119 23782
21290 24906
19512 23836
24250 20016
25932 26029
24420 24808
22461 23812
22874 21380
22874 21009
24811 20983
25000 21138
21974 24277
21318 24025
23869 21901
25402 22178
21945 25030
19831 22963
25418 26063
23331 26020
23171 20423
22204 22594
23517 21470
24565 25120
21229 25070
25406 25362
20968 24311
23360 25355
19868 21228
21995 24080
24637 26020
24969 23497
24023 21463
23795 19566
24002 21401
24631 24906
23983 22040
24536 24025
24993 21589
20909 24297
25782 25754
23007 21137
19803 22466
24931 21610
22950 20051
23275 23573
22663 24954
21412 22297
21142 25372
21901 22666
21800 24297
25402 19644
24288 21781
24685 19852
23209 20988
22650 21468
20437 24789
24663 22962
20945 24968
23135 22260
19513 23120
23656 23654
21442 25834
23793 20804
20384 23616
21659 22184
20296 24277
20982 25565
22559 21922
22918 24836
25568 19688
23187 19540
20418 24954
23903 21119
21427 22919
19518 21220
23297 21865
22881 21568
25514 23594
24685 21145
25608 25607
23889 20690
23324 25772
19693 23479
21610 23778
21134 21224
23382 22970
20500 19812
23903 21733
24830 22424
21042 22430
19606 20764
23612 25390
25000 22113
22666 21354
22829 21119
24512 24139
22196 24412
23279 21366
20988 25512
20834 24954
23536 22116
20654 22791
25831 20682
24610 21539
20724 25187
23961 23461
23410 19816
24178 25817
21876 22358
23317 24900
20571 24161
20921 23344
25384 23531
23869 23188
23632 21610
21188 24412
23817 21476
22647 23704
24789 20217
24325 21160
25854 25524
22458 24277
22554 25754
21791 25608
23151 26002
21298 22919
22296 23311
21137 22583
25909 22943
23977 20865
23238 22260
22450 22970
21993 19782
22034 22925
20039 23461
25754 21504
20968 25754
23732 25754
24903 20298
20116 24002
19677 24297
23299 23945
23972 22963
23836 20433
25000 22458
24415 20682
23179 22577
22458 19796
21156 25073
20857 23634
22086 25471
22839 22563
24645 20875
26201 24111
21465 22795
23179 22629
23669 23646
21605 24072
25729 23991
23099 21366
23740 20493
22933 20608
23595 20073
20500 23275
22358 19608
25932 21191
25943 20069
25083 21290
22650 20715
23297 19487
21134 24402
25449 20018
24504 22916
20415 23179
21682 22184
20560 22021
22167 22269
23446 23264
20709 22666
24192 20195
21498 22957
23740 20786
23092 23573
23187 20075
24250 21397
19739 21210
21924 19870
20865 24237
23444 20873
22528 21381
25000 20608
22829 21941
25239 24677
22410 21366
24808 21276
25665 24179
19512 23552
23324 24160
22458 22756
20426 21966
23250 20988
19922 25772
21589 22040
20015 25772
23069 22966
21836 25722
25333 23949
25161 22169
25652 25138
20988 25909
20624 21846
22652 23370
25142 26104
20916 24243
19792 25362
22791 20449
24993 19792
20340 25772
22650 20372
22791 23506
22382 20786
23429 23386
23845 20958
25916 24738
21700 23179
21134 21478
22498 20440
21246 23869
25412 24214
21876 20652
24148 21024
21001 23817
19548 24171
22524 22261
23677 23410
21547 22666
24541 19608
19491 24574
19824 23573
24362 20171
23461 23684
22658 19578
20470 23230
21188 24244
24297 24217
23314 24237
20916 24194
25390 21276
23311 23324
23972 19890
19874 25114
25618 25073
23983 24987
23099 20195
25353 19543
24326 23891
21749 22358
24806 19494
24831 20875
19868 21290
23154 23841
21901 25493
24413 25120
20459 22919
23429 21119
20252 26207
22839 21459
22839 20372
21551 25150
23961 21892
25652 25357
24025 22373
22086 21993
20379 25174
21801 24144
19706 20466
21112 22382
25174 22167
22476 21354
20921 22430
23187 20319
22768 20867
22935 22023
19757 23733
20993 22532
22645 19568
24685 21183
24793 26114
20010 22466
21318 25275
22187 26020
20182 25041
19642 24297
23263 21382
22340 24900
20560 22118
21037 23099
20137 25754
25800 20299
22358 21159
25641 19792
24560 20296
23638 20299
25000 20832
23559 23619
25239 24790
23205 23264
23800 25363
21859 23845
19880 23461
23179 20852
20921 24277
22839 23594
23950 20390
21290 25197
20426 25363
20196 24225
25854 21160
22579 20343
20384 25976
21974 25212
23188 21041
23995 26002
21670 22286
22576 21835
22788 26063
24023 23480
20085 25772
20857 25166
23250 20227
23460 23620
26081 25270
19870 20296
25449 20509
24192 21128
23011 23153
22791 19671
23101 21119
25909 24322
23171 20493
25488 25781
22085 22297
23410 19860
24362 21610
21825 19913
21971 25772
22034 23891
19787 25754
20272 25412
23940 20689
22588 21024
24133 21046
23798 19763
21484 22594
22081 19578
23099 21160
23087 23891
22187 23634
24573 20209
19489 23078
23516 20804
20766 21062
24695 21138
24437 23594
22839 20352
23593 23869
22528 20625
20536 20764
23375 20082
23330 22424
24025 21275
25471 23005
25283 21988
20140 24243
20875 25174
23903 24096
23086 20493
21469 24243
23953 23911
22382 20608
23099 22113
21313 19611
26179 21584
25352 20359
19608 23176
23684 24241
23151 22535
24250 19757
20182 23945
23870 25251
24695 25725
23241 25046
23961 21656
25390 22583
24380 22040
25390 19548
19489 23972
23049 24237
22874 22154
22623 21119
23940 23744
20659 25754
25240 25772
22919 23751
22348 25909
20812 23610
25124 23586
25943 22184
23903 22184
25673 19792
22021 26020
23099 19608
19492 25074
23961 19771
20351 23317
25353 25128
24288 23841
26179 21947
22415 21276
21800 21677
22275 19611
20819 25013
20334 24251
23154 20387
26020 24287
22553 21544
21210 22102
24637 25641
23664 22663
20571 25813
20393 25150
22199 23297
24610 20818
24507 23470
23444 20429
22650 21554
24405 24592
22170 23611
19931 23086
20189 24297
23800 23832
22658 21967
22275 20707
24484 23706
25713 23624
22382 21610
22687 19873
22788 23090
22354 21470
26058 19749
20372 22483
21315 24947
25584 20608
24297 21965
22658 20376
20921 23903
19868 25754
20873 19810
23087 23552
23889 22340
20082 23078
23566 26107
20623 25512
24188 23680
24574 24026
23960 21770
23972 23832
21794 23669
21669 23238
26017 23092
21924 26058
23910 22765
23193 21234
23250 24366
23841 26122
23861 20305
25390 24887
23940 21560
23712 20501
24171 25412
21778 24574
25275 20744
24327 20493
23011 20623
25874 26063
23120 22118
25618 25751
23788 19801
22577 24437
25503 20558
24415 22653
25916 23559
24023 20354
23193 19473
22003 25813
19525 23638
23480 24756
22003 23634
23800 20789
21901 23176
23929 23377
23525 21229
24610 24631
20411 23790
21332 23120
24144 22373
24023 21267
20415 23929
22330 20018
26201 24741
21778 26114
25259 24909
25402 19955
22663 23150
19835 24718
22791 21642
23099 20709
23444 22141
22758 22776
25506 26104
26045 21084
26207 20347
24250 19996
23099 20715
23940 21024
24695 21684
23818 22666
22933 20958
26058 21186
20016 24277
20696 22553
19708 24462
20085 21604
22659 22532
26170 20313
22658 21009
19910 25607
21645 19611
26082 23513
23151 22061
22355 21945
23293 22604
24745 20682
24248 21134
23043 21283
24192 23205
25384 25608
23179 19960
25933 25754
22747 19949
25166 19688
21295 23031
24758 25512
21119 24756
19819 25270
22782 22652
25754 20987
23733 23470
22198 25168
23151 20652
25116 24413
21332 25449
23852 23949
20672 25073
22773 24237
24288 25607
25308 25695
23788 23372
23740 22652
20820 24906
25402 22061
24224 24410
24595 23594
22358 21147
21491 19904
26164 25299
19490 22919
25713 23205
24610 23011
23737 22963
25449 19960
21945 19870
24288 20749
20227 23293
23165 21302
21820 20652
23892 20682
22073 20761
21597 25086
23179 23044
23027 22023
23768 22581
24811 20171
20961 24574
23098 21240
23953 24026
21149 23324
23179 22657
25067 20870
20819 25904
23772 20283
19763 23709
22013 25187
25503 19553
25909 22024
24790 24719
21172 22911
23151 21752
23161 25909
20720 23172
24631 24772
22297 21413
20834 23852
19997 19870
20249 21741
23340 25754
23740 24037
23033 21842
23761 26182
26179 21826
25728 24303
20400 26063
20376 22666
21901 24157
22911 21138
23534 20652
23352 20299
25449 20195
20459 19870
20665 24769
20720 24002
23960 19982
19661 21570
22164 25703
23092 24624
23091 19768
22623 23669
19812 24002
25402 22011
23680 21610
20688 23852
24718 24625
25568 21610
20709 23825
19540 22776
19518 21509
23234 19885
25909 20005
21213 23494
21392 22703
23972 20354
20249 21204
21609 22666
22839 20246
20085 24002
23299 23891
20258 25073
23360 22582
22918 23852
20675 24685
25490 21501
20997 25402
21526 25362
21548 22963
24692 23153
23659 23399
24624 23753
20731 23250
24695 19651
22985 25608
22034 23179
24249 20324
25013 20016
21119 22532
23255 24214
26164 19930
25239 23911
20307 22497
19802 25602
24233 24387
20833 25100
20795 24297
21042 22418
25420 21610
23350 22333
24577 23991
20659 23106
23382 21276
21995 25161
19604 25828
25909 19608
23161 21948
19913 23188
23485 22085
23680 23360
23176 23153
25933 26081
25820 22168
20376 21317
24504 23210
23940 21740
21614 22382
23313 23800
24023 21196
25536 23758
21825 23437
21138 25362
23719 20509
22559 21040
23099 19930
23753 25283
19914 23264
22925 21275
23800 22021
21566 23078
21290 22430
22046 23187
22348 23153
25213 25412
23324 20103
23812 19689
20799 22156
22839 23340
23444 22210
21228 21965
21246 22703
20246 25626
23313 25909
19618 24297
20515 23733
22073 20366
23909 20371
21149 20470
23080 22297
21713 22430
19947 23172
22658 21638
24573 23437
22878 19975
22117 20652
25753 19792
22623 21781
23444 22080
25753 19482
22830 20283
20350 24250
24802 24330
24364 21427
25150 24574
24309 21040
24695 20832
21149 20891
24772 20931
21138 22957
23582 23291
20081 23360
25161 21584
23852 20501
23099 19683
22535 24800
24326 24569
22628 22594
21318 25015
22296 21892
19556 25355
20799 22975
20227 22375
20823 19611
21829 22782
23362 25046
21576 25321
20135 24413
23732 24023
23154 21978
20998 22576
23940 22553
24275 22657
22780 23559
25402 21712
24180 22577
20357 24002
20009 25150
23871 26020
20768 23238
22348 22109
24550 24565
22839 20171
25916 24214
22424 24237
24025 21160
24025 20372
22933 20873
23161 24859
20085 22919
23718 21138
22164 25639
24250 20018
21513 22974
24192 21586
22348 26152
20305 25412
23179 19692
20916 22345
20196 25754
23793 22652
22950 20903
25800 21906
21244 23099
25220 21998
20832 19487
23983 24297
23324 25512
24023 19874
21473 23623
19491 25618
23143 20305
23033 23010
25602 25367
21995 23645
23444 20358
19505 23567
23031 21632
26017 24959
23859 21331
20307 24574
19900 25412
21134 24906
20552 22666
23896 21610
23086 22560
23043 20103
20228 25161
23502 20980
21476 24906
22666 22373
22600 23297
21901 25781
25631 23844
21995 23150
25781 25673
20312 24740
24542 25049
20426 23859
25026 25074
22375 21276
20483 23078
25449 20227
23852 21260
21465 24662
23664 22121
24695 19838
23516 19873
20596 23099
22213 21600
24107 23293
24578 25976
24610 21024
24255 25161
22933 20299
25353 23331
22650 26063
21875 25754
25631 23640
23250 21294
22839 22023
23961 22116
24717 25540
21560 24080
22650 19628
21465 22375
22187 23559
21122 26164
21238 23573
25353 22628
21740 24364
20596 25275
22470 24937
23480 25114
20865 22466
21547 23437
23800 20987
20754 23099
23536 25273
24422 24402
21465 24080
24033 23891
21825 24708
20147 25820
25420 25273
22839 19874
20668 23205
21966 22061
21425 24402
23633 25073
20993 23078
21237 23559
20034 23161
22379 23078
19930 23273
24063 24225
20875 23559
20085 20914
23444 21559
22682 19638
23217 20715
22623 21966
22073 24410
23552 22210
22052 23039
24519 24574
22653 22666
21648 21305
23375 21138
21470 24421
22167 23523
23800 22044
20354 22297
24250 19682
23736 23034
26082 22859
24033 24288
23161 20319
20286 25800
25483 25607
25308 23624
19505 24413
22116 25070
23740 23593
25390 23296
23352 20987
22034 21676
23780 23609
20922 20764
22891 20931
23818 21317
21216 24954
23576 20545
21859 24023
20286 22636
22086 23619
23098 20980
19795 22418
23939 26063
23813 23818
21678 22424
25854 21892
20037 20909
21639 23567
20451 23461
25831 24037
22927 20171
23582 21262
25000 24826
23845 21448
20727 21366
21993 21981
23444 21585
21046 26040
22204 22358
20421 25608
20916 23171
22265 21382
24097 21229
21868 22963
23950 20577
25854 23314
25308 19914
20689 23869
20122 25772
21298 23099
19648 23778
20857 25607
22042 24346
22286 21381
23772 21119
24220 21070
21526 22345
24595 22553
22682 21225
20305 22286
22531 19641
22927 20246
19958 21993
19710 24237
24806 21156
21446 22355
22085 22960
24695 19969
21484 22418
23761 19894
23179 19874
21713 25772
24631 25262
22951 19500
25018 19555
23669 25772
20909 23230
25955 23871
19527 24927
22532 22113
20560 19949
22950 20359
25219 20501
20688 25618
23126 20493
24993 22184
21826 19913
21119 24802
24325 22535
25420 20015
20394 20873
20242 23429
23753 24139
24719 25976
24250 23839
24790 21462
19489 23510
21244 23172
22772 24906
24325 21638
23795 24311
19540 22911
21965 25161
24250 20659
22839 22373
23852 22102
25909 24909
21334 22458
23099 21946
22565 20241
21901 22600
21538 21677
24610 24702
25618 20283
20387 22418
23234 19873
21678 22559
20905 25074
21104 23437
25909 23611
23800 24010
24297 21216
22086 23150
20786 25754
23767 21138
22773 24144
22650 19869
23187 19782
20070 25976
25308 25639
22286 20744
21901 24183
23820 25608
23031 20171
24631 23852
20394 21514
22458 22166
23711 22560
22566 20430
19560 25754
20514 25703
21995 24277
23761 22157
21510 24160
25174 20303
21319 25754
25156 26086
25909 20550
21187 22576
24762 25067
21648 21275
21826 26180
19701 25067
20592 21275
23664 21119
23582 23049
21734 26107
24959 26143
25702 21494
19997 25390
24282 20511
21446 22297
25402 21301
23099 21965
20409 23788
25220 23818
21853 23297
21465 22861
23143 22859
20343 24345
26096 24567
24610 21984
23324 26104
24438 25166
20643 23039
23151 21526
21825 24025
22636 21180
24248 19952
22975 21610
25353 21735
23209 20467
20025 24402
22623 23047
19606 24277
20959 25187
25753 20414
24493 21548
21098 22358
23429 21981
22791 21732
24808 24741
23106 25073
25822 21428
23977 20804
26141 25342
25841 23995
26164 21234
21733 24473
23666 26063
23768 25449
21901 25512
25905 21300
20164 24906
22579 20874
20419 21040
19647 24718
21220 24906
19903 23460
23732 24718
23179 22553
22791 20773
21122 23165
25449 24257
24148 22577
22308 21842
22658 22034
24830 24631
24610 21128
21220 22322
26170 21901
20968 25909
23983 25109
26086 24257
19868 23099
21565 22776
22423 24413
25138 25412
23740 19618
23264 23844
22275 19870
21967 23099
25753 23805
24830 24763
23250 21046
25264 25709
21469 23812
24695 19638
25774 23839
21071 23176
23616 20585
19649 26020
22485 21413
25308 25918
22423 24297
25083 19648
22287 20900
25000 21498
24137 25751
23560 19770
22758 23619
19856 25549
21614 25391
21735 22594
20818 22975
21636 26020
25503 21256
21174 19801
24033 25353
21316 25512
26180 23480
20447 25608
22682 21305
23099 21670
22379 24288
19844 25067
24855 25781
26152 25614
22623 19683
23375 22333
24938 24134
25280 25239
23869 21498
22198 23646
23001 21463
22189 22576
19823 21924
21119 22788
22636 22021
21736 22358
25909 20616
23254 25774
24023 22184
22457 20313
23087 24277
21071 22966
19922 24302
26170 25889
20509 25086
23818 20413
21427 25161
22925 22373
22581 19798
21195 24806
25449 22260
23678 21096
19602 22919
21825 23179
20321 23510
22594 22184
24248 19739
21561 23039
21213 22659
20873 22194
20873 22833
19757 23297
21488 19611
23593 20445
25333 23594
23179 23839
24610 20744
21659 22553
21138 22888
19994 23311
25665 23275
22791 20208
24297 19756
20203 25512
21468 24484
24139 21119
20192 22549
23382 23911
25000 20066
20387 22430
23358 23479
24888 22184
24685 20917
22524 21594
21318 25362
23086 24251
19746 26020
23154 24330
21295 22966
21446 22464
23027 19901
25402 21402
24610 24296
21076 24241
26058 25890
19543 25512
24771 22559
23852 21901
24405 24402
22747 21564
21569 20744
25308 25736
21513 24987
21491 26143
20598 23001
25390 21220
25402 24607
19791 20445
23677 24302
23154 21225
21828 24251
23018 22657
20194 24002
22938 20441
25220 25229
24934 20195
20799 19870
25420 21138
23250 20760
23743 23410
22457 20625
22528 20069
24248 19772
24003 22190
24758 24413
21614 22874
21752 22549
22829 22184
25615 22061
20834 23800
23444 20016
20496 22531
25308 20687
20034 24685
23330 20246
23612 24954
23331 24332
22977 24161
23800 19874
20764 20823
24624 20025
23836 19717
25781 21610
23250 22784
23099 19798
20257 23610
23801 19979
22458 21146
21761 23800
23800 21009
23859 19792
19922 22776
20433 24089
24604 23275
25449 25021
19688 23297
21188 22830
26107 21276
23091 22184
25885 23669
20066 21971
23238 21159
25174 25109
23444 19505
22985 23250
21859 23099
21842 23172
20500 21734
24604 19894
22275 26031
25828 19494
23057 25067
23375 21610
23972 23706
25652 22652
22123 20873
23516 20283
19487 23634
19578 21793
26096 25929
24248 24171
20415 22782
20921 24836
22539 23018
21973 23902
23516 22577
21719 23623
19802 24402
25568 20283
21768 23940
20028 23691
23609 23616
21748 22560
24354 23799
20774 24244
24002 21413
23001 22775
21098 24025
25536 22553
19792 25187
21498 24906
20350 22892
23099 19701
22830 20387
22498 21464
23311 22943
24413 21978
25174 19608
25180 24157
23171 22021
24010 25772
21246 24592
23845 20138
22535 24758
21468 24574
23311 19608
24840 22184
23654 22772
21188 22687
20873 23747
20682 25070
22553 22919
24695 20356
25955 21669
22671 19682
25806 23719
23911 19938
24362 21645
20307 24025
23667 21119
22671 19673
21648 22604
23813 21600
24574 21160
20358 22358
23097 23902
22355 21920
21716 23634
21901 22919
25916 19874
22650 19894
26082 25384
21986 25017
20597 23733
24288 19749
21806 22358
23949 24859
23680 21119
20643 23510
22636 19637
21648 20873
20766 22375
21119 24302
22141 23654
24811 24214
22938 19953
24025 21401
23461 20299
21689 25308
26104 23399
22636 20411
22358 21514
21567 25703
21465 23523
22658 20566
21723 22184
19628 19611
20024 23179
21995 23472
23106 24274
23193 22021
20709 25424
23995 25916
21134 21450
20788 25976
22546 19510
23639 22919
22275 20630
23960 20785
24770 25015
21112 23172
20082 22287
23099 21448
25729 22400
22354 19900
23099 19771
21826 26020
20945 22286
24574 22214
19791 25109
21001 22623
24497 22657
24025 23043
22938 20858
21801 23078
26181 25384
24504 21400
21825 23859
22461 22656
20046 22791
23798 20509
25854 21734
23171 22116
19979 22919
24107 25109
23241 21840
24462 19801
22275 22874
25000 20411
23234 21599
23480 25391
20818 23099
20451 23078
19922 23017
21446 22286
24080 21584
23582 23616
21901 24237
25244 20766
21554 19870
22034 24288
21468 22356
25067 21835
24800 21377
24002 22554
25575 23092
25083 24111
25820 19889
23099 22214
22213 19689
24850 24297
25000 21901
21638 25909
19922 24023
20085 22535
25512 20987
23502 19770
23667 22772
19523 24060
20766 23193
22275 23017
20028 22308
23903 19952
23618 23299
21412 22286
23609 24366
22287 22358
21363 24412
21441 24008
20085 19683
21745 23080
23623 22012
23664 20644
22461 24421
21974 25772
24025 21397
21826 24410
23196 22972
24632 21724
25030 24330
20689 26181
26180 23168
20873 24954
21469 23099
22535 20283
22829 20313
20500 20018
23263 22373
23728 24160
20467 22666
23939 25960
22275 24983
25512 21594
20182 26082
21119 22911
21138 25754
24770 25598
25909 19771
19791 24243
22933 22214
21827 20195
19918 23623
24296 21356
23179 21443
19868 24144
21334 22791
26082 19657
20500 21298
25278 26020
25608 22024
23154 21607
19922 23812
22193 22438
24663 20195
25244 21684
22213 20203
21187 25652
23375 20658
21232 24002
22497 19763
24542 24624
26045 22719
21995 22666
24789 22652
25449 20171
22775 25041
23044 24507
23017 21220
22261 19611
21600 24025
23961 19763
20203 22699
20085 19998
21549 25461
25353 24529
19840 22892
25275 22294
22487 20674
22553 22269
21498 25754
25018 21691
22286 20987
21901 25362
25720 25114
26082 23092
25000 21735
21364 24756
20555 19661
23983 23972
21101 23761
23250 23324
20164 23869
22283 20272
25702 23261
22659 23510
22113 24756
20500 19901
23813 21302
21213 22645
23099 19923
24954 19996
22553 21400
23179 22113
20895 20652
25353 20493
25021 24413
24631 24139
22354 21448
22458 21064
20834 25848
20371 22776
25321 22102
23099 21663
23461 19955
22636 20873
23099 22023
23001 20173
26002 25976
22358 21936
25568 21119
23193 19721
25220 22373
23852 22943
19761 24220
24248 19691
21515 22960
23234 23799
24610 23513
19707 23360
20194 24288
22581 24008
24685 21408
19868 23836
21465 25412
24671 22184
21826 25625
23352 21401
22791 22178
22637 21747
23451 21276
19648 24769
25753 19568
23661 23773
23444 20754
23852 21842
22581 19782
21810 23691
21825 22483
24632 25916
22045 23120
20874 25772
20415 25909
19527 22358
21119 22975
19572 20909
19901 19611
24454 25754
23263 21381
24248 21442
24553 24396
23193 20804
19555 23275
22623 19877
20055 23576
21316 22485
23852 24008
22628 24237
22436 22061
22658 22559
21001 24192
20690 22483
23360 20577
23179 20352
25753 24560
22658 20272
23961 19538
21160 20764
24993 22918
21995 24906
22765 23534
21234 24025
25464 22650
20500 22086
23452 24181
24133 24225
23151 23891
22466 22136
22086 22358
23500 25715
22213 20195
21924 22682
20873 19792
23154 22113
19756 23619
20550 22960
21801 24716
22031 25608
24830 22972
22682 20870
23275 26092
24769 24008
23444 19618
20657 23603
21469 22583
25729 20283
20196 23099
21947 23238
25089 25715
23603 22859
21469 22960
23179 20173
25536 20493
23852 20467
25800 23832
26113 21748
24808 23324
23836 22963
22077 24297
24063 25449
22703 19763
23151 25273
23264 22943
24002 20625
23246 21380
22782 21629
20409 24462
23457 21201
19904 22067
25197 21610
19919 20873
21678 22184
21900 21594
23582 22024
22331 25909
19637 24718
19618 24484
22052 25909
23324 23691
21272 23297
22911 23034
22294 25772
23680 19756
23151 22539
24536 22594
21442 22297
19812 23610
23234 22118
23582 22373
21549 23852
22461 25418
22623 19748
21901 25114
21825 24954
19491 24906
25000 20054
25000 19641
21316 23761
22179 23559
20754 23179
24758 19494
20266 25161
19868 22600
20993 24624
19768 23733
23203 22373
21995 24297
21965 24728
26082 20709
20895 22418
20715 22466
23444 24938
19830 23733
22623 23761
20500 24023
19957 25512
26113 20110
24663 21609
21067 24954
21589 25067
20442 21332
25652 24274
23360 21301
20224 24565
24277 20870
21892 22375
19489 23311
20361 25772
22049 26020
22663 23264
20768 23099
21501 22340
22577 23733
20927 26020
25909 24463
19683 23382
25308 25264
24249 21187
22658 21298
25244 20196
21791 24769
23187 21443
23656 25612
24632 25114
22630 23534
25220 24275
21513 24493
21224 23559
23935 20387
23479 21584
22382 20246
23845 22146
22938 19568
22213 20451
20932 22623
24250 22118
23011 21648
23573 19952
23087 24243
24855 21138
20811 22666
23151 20590
23576 21332
25353 21078
24137 25715
24685 22795
22434 20075
25729 20196
19508 24806
23638 20246
25357 25774
22859 23172
20979 23153
24806 19913
22747 21830
20252 22791
20578 23795
25000 21713
24947 23168
23188 23573
22424 25355
25220 20356
21376 23638
21397 24756
23205 22380
21002 23120
24277 22044
22458 19671
23680 20283
25385 24756
22275 22123
23586 25772
19791 25424
21188 25772
23852 19782
19791 19887
19491 25512
19637 22583
19802 25114
25110 25161
23632 21378
20938 24685
23578 25210
24026 23176
25262 21781
22213 19930
23800 22629
24772 21681
22013 22859
23126 20283
21213 22985
19884 21349
22275 21046
23001 20351
19490 23669
25000 20497
22874 22257
25822 20789
24574 21440
23099 20303
24931 20987
20377 25703
20760 25772
21046 23523
23255 22373
20356 23099
25909 25975
21244 19870
25932 23872
24248 21196
20016 23619
23098 22167
24806 24637
25000 24790
25000 22117
23099 19689
24695 20195
21149 23841
23790 20299
25000 21820
23099 21451
23209 21538
24806 20724
21077 20616
20665 23410
23382 20299
25161 24366
25067 21494
24550 24987
23576 20550
23516 21138
23154 19543
20500 21494
23940 19998
25553 20283
20500 25273
20921 26020
19714 22791
22382 21375
20025 22322
25402 22678
21213 23011
22891 22082
23615 23663
21141 24060
23836 22577
21119 23619
20164 25308
25652 23275
21892 23031
19717 22358
22539 25449
22275 20991
21924 24297
25156 22581
22629 25355
22972 22861
23261 26181
21993 20186
25841 25459
19870 21978
23151 20466
19621 25828
22839 25146
22041 23800
21498 26181
21156 25813
25380 19953
23299 23728
23910 21965
23820 25420
21901 24277
24685 20103
25239 23043
23103 20272
25955 22128
25822 25917
22458 25275
23179 21138
23768 26058
19558 25412
23017 19558
23375 19648
24565 23615
24311 22761
24565 24625
23460 24944
19877 24244
24997 20980
21213 23206
21151 23080
25449 19768
25223 20027
26152 23844
21970 24769
23187 21892
22348 24987
19518 24161
24830 21892
21316 25904
20445 22281
25810 25187
24560 19695
25493 21610
21159 24756
24405 23531
24400 25608
21756 24139
20459 25781
24610 20283
23876 21276
22658 21873
24358 20874
21756 24756
20249 23744
23234 20195
20203 24023
22021 22687
24023 20173
22626 22830
20082 22666
24631 25362
24438 24756
20322 20451
25828 20802
23800 20354
20895 24954
23154 21366
26170 22261
24677 26081
25000 21566
24133 20511
22874 23559
24806 20359
19604 23534
21901 24225
25626 26063
20196 23179
24111 25754
23064 23510
23623 21901
23299 25067
24192 23275
23559 24302
20500 21568
23234 21275
21572 22560
26152 23386
22782 19812
23618 20305
23559 25834
20921 23869
25461 25046
25608 24763
23296 25355
19708 23078
22636 20884
21076 23682
20688 23264
20799 23078
19904 20509
23870 19818
23593 21324
24250 23361
22636 20189
24610 22136
24560 23594
23166 23311
20720 22776
24569 21584
25000 21559
22579 22663
20423 24134
21313 24277
26099 24795
20818 25355
23077 19701
23017 20195
22261 23172
22021 20652
21995 23718
22782 21538
24993 21364
20643 23972
25512 20650
23852 20979
20961 25909
20354 22531
23264 19673
25244 20154
20873 19852
23205 21845
23909 20496
21859 24281
22999 23559
25083 20246
22600 21842
21538 23479
24695 21180
23154 20987
19802 24025
19986 25503
23176 19894
21442 25412
24577 24290
20055 22418
26058 23580
26180 20608
23457 23961
26017 20931
22974 22373
21814 22791
20322 21102
23813 23047
21046 25166
24993 21290
23179 20387
24610 24449
24137 24789
22193 23163
21801 25822
25308 20010
23890 22184
21446 24410
19914 25909
25308 20031
22656 20497
22600 20227
20727 21102
26180 21629
25943 25524
21761 25955
23001 23003
24277 21207
25353 23593
23586 25223
22040 19628
22650 22791
25822 21974
23079 25828
25046 21604
23193 21397
20177 23634
24057 21901
21318 24718
19764 23161
20195 22666
23154 23297
24610 21137
23352 20884
21507 23324
22211 24161
24250 20789
22213 21741
25210 22424
19868 21111
21825 25612
22190 25612
21234 24080
22239 25976
21465 23150
19812 25161
20351 23498
19707 23324
24631 25858
26149 24906
23825 22963
22080 23017
26082 19768
22400 24906
22261 22511
23995 24861
25402 22043
25156 26143
19802 22650
23593 21296
22358 22033
20596 22658
22106 23903
23092 24934
19625 24225
21134 19904
19870 19782
23086 20376
23428 21267
22345 20352
23230 20313
22623 21229
23753 25067
24454 24444
23896 22115
25275 20291
25000 20874
25549 20171
25000 19874
25909 20958
22636 22184
21825 22830
23444 21632
25308 25867
21295 23953
25503 20982
25308 20296
23813 21328
21876 23790
21098 24345
21332 22040
22623 20283
19505 23238
25909 21401
20394 24220
22535 24938
21791 25772
23772 19792
20875 22184
23761 23780
22775 26180
23154 23669
24107 26082
19536 25813
21901 23620
23616 24147
22261 23852
24900 21521
20873 23936
21315 22651
24577 20493
22531 25628
21315 22358
19512 21987
23150 20352
26207 26029
21119 23523
25831 21526
25402 25772
19999 23859
23761 23360
23859 21712
25000 23461
25729 23706
24135 23745
22466 21584
24695 24631
26170 21382
19856 24297
24470 24577
23255 24257
21189 23230
22874 20283
23111 23616
22052 23891
22829 21825
21290 22483
25652 25041
25353 20690
23753 25468
23250 21324
25503 22090
20918 20590
21138 24756
21191 22275
25000 19560
22650 20983
21714 25960
23234 19969
21859 24243
22524 20010
24465 22963
21465 23619
24717 24413
23728 24251
22358 21624
21465 25161
23677 24297
25883 23594
23506 20266
19906 25353
23429 23461
21636 24463
25449 19782
21465 24728
24003 20283
23593 25109
21681 26020
21062 19738
21513 24749
21735 24023
20789 24931
23953 22095
23429 23911
20616 24906
23876 23677
25618 23010
24695 25703
25955 20306
24610 20357
24224 19905
21283 25187
23444 22048
19714 22294
24420 25466
22975 22113
24311 23745
24685 23106
23549 25817
22470 20891
22358 20246
22839 23043
24663 19602
23526 24251
25673 20647
21465 23573
24509 23549
25390 21978
25352 26180
25882 25696
24993 23732
24749 20447
23086 21469
24933 25772
19791 24302
24692 20544
20709 25109
23424 21276
25106 24954
23677 22594
22927 20768
20358 23238
23161 23203
21316 25540
22791 22049
24248 20069
22073 20875
24610 24814
24565 20550
23582 20303
23176 21509
23375 22261
22577 22625
19931 24836
22249 22600
23593 23761
23632 23844
23983 24412
23762 23646
19498 21993
25449 21488
20062 23099
22040 25182
23800 23594
21993 20597
25841 20820
20795 21015
20786 24756
23619 21610
23179 20820
24371 26031
25100 22963
25514 23360
22438 20110
21228 23911
25449 20811
25618 23991
23603 21945
23045 21382
23324 24297
23234 22113
23154 24795
24047 22881
25367 26031
20417 19687
21154 21846
20945 21677
23890 21138
22594 19748
21104 23410
22650 20873
23812 21610
21795 23510
23903 21138
23983 22470
22253 24089
22141 22546
23661 20116
21901 24166
22476 20417
25262 20870
25618 20759
21465 23176
25017 23762
21465 23279
23234 20616
20305 23510
24110 25273
20343 21648
23972 23188
21046 25146
24789 22040
23250 23656
24983 22333
21761 22623
20417 22375
26017 25695
22791 23230
24248 21509
24060 20922
21246 23531
23234 22604
23852 24414
20834 23927
22830 20266
25487 25138
23099 19884
22345 19618
25612 25150
23165 19768
26201 25929
23788 20983
21332 22600
21119 22687
20766 24574
20500 21892
19819 22358
22052 22666
20329 23176
21491 22410
21042 24769
23852 20759
25854 25088
21446 24469
20932 22345
24325 19770
22650 22921
21491 24421
23820 24718
25828 19660
21298 23264
21573 22511
26099 24366
25822 19770
22253 23638
22486 19530
23889 22424
21216 25195
23852 23340
19792 25607
22859 20508
19636 24025
25504 22167
22354 20823
22658 21669
21604 23859
22128 25412
22830 21781
20227 21677
20186 23176
24023 20496
22106 22637
23311 20709
22854 23176
23852 21443
21001 23250
25753 20682
25238 22560
24107 24934
22839 20823
24610 22184
25841 19651
19540 23172
21213 22559
23103 20945
26152 23995
22003 23818
21222 21770
23852 23549
24749 19803
22275 20547
25608 21463
19812 23120
23011 23646
24947 21945
21172 25540
24107 25353
19824 23788
21842 23733
22581 22663
25390 21112
22577 24517
22629 24493
24749 20283
22423 22546
22919 19873
22239 25402
25333 19994
20343 23179
24057 20980
23506 21040
23263 24274
21102 23788
23761 21412
21149 19628
20316 23151
20500 23762
23427 20227
22658 21538
22443 23609
21468 23165
23960 23470
23255 21568
21560 22957
24325 21970
20909 22532
25357 25412
23740 19505
24249 24257
20306 22623
25781 26151
23086 20867
20988 23761
23151 21499
19906 25781
21513 22788
22498 20046
21995 25355
20873 20457
23187 22082
22461 23410
24749 21366
24608 25017
23120 23043
25608 22113
24607 20010
25308 19809
21442 23619
19791 19764
23623 21310
22577 23645
22938 19809
25166 19648
21062 22113
20961 22623
23099 19816
24604 21112
24607 20509
25104 25727
22190 22666
23940 20054
20692 23800
23161 21046
25618 23043
20384 25380
23080 23410
23255 21276
23330 25774
22115 24484
22167 23619
25156 21454
26152 24677
24194 20171
22747 20682
22682 21548
19795 26143
22791 20647
22772 24954
24738 20073
23813 23586
23047 20652
21962 19545
22747 22116
22839 23839
23800 21498
25618 20536
25390 22963
23502 20804
23800 21276
24188 22040
21465 26078
25124 19717
20351 23099
19652 22911
25233 25607
25000 20852
24811 19618
21648 24238
21564 22776
22275 24135
21901 24396
24937 19792
22594 22077
20305 24277
20662 24161
23120 22963
22052 24002
25220 19988
21690 23045
20343 21046
26141 25852
23429 24367
23314 24997
22296 20884
21148 22458
19868 23017
24250 20429
23154 21610
22741 24685
21761 24002
24282 20508
24685 23902
21046 23799
20536 21677
19520 25174
21859 22358
23375 21529
21046 23559
22636 19757
25813 19611
21172 22375
23033 20823
22577 26139
21901 22776
19505 25161
21901 24756
21716 25976
24631 24237
23793 20682
22358 21377
24037 24906
21901 24139
25353 23446
22782 19830
21316 24025
23609 22943
25754 25975
25449 19952
20445 22560
22167 22776
23255 22943
22013 23859
22196 24002
23736 19475
20909 23788
20891 24244
23427 19647
21119 26180
24654 20228
24250 20266
23869 19510
25137 25834
23293 22560
23638 21670
25461 20608
23798 24366
22960 21681
19556 24517
23975 24414
22773 23800
19490 22354
22638 23573
24250 20811
22919 20372
24560 20387
19491 23179
19548 22286
21364 23264
21539 24769
23800 20988
24144 20372
20916 23103
23375 19924
23972 21234
21967 24718
22524 22021
19520 25187
22623 20159
23087 24484
25402 22049
23194 21901
22021 24025
24769 19996
23740 20832
24983 21102
20688 24332
24250 23753
19688 23669
19880 25976
23151 24288
24610 21901
21677 21978
23230 23043
21614 25083
22358 21256
22116 22430
22839 20980
25353 23795
23972 21514
25618 20891
23560 21031
24993 19763
25161 21978
25220 25146
22034 24484
23444 19560
25352 25548
24484 24179
25449 25182
24288 19873
22196 23667
24134 22067
23234 20884
22106 24574
24188 24366
20692 21993
20891 23825
22511 20246
21735 23790
23669 22061
21513 23230
21733 24031
21220 22641
20500 19884
21327 22653
24906 25187
25260 26164
22682 19994
21067 25781
25333 22184
23983 26181
24772 19683
22594 20018
22073 20760
20578 24738
24604 22260
24560 21965
24656 21031
24610 21731
23151 23179
23382 22683
24718 19628
21901 24520
24749 20795
23263 19829
21046 24217
21469 22457
25212 24096
21102 22511
22498 21046
19856 19518
23011 25070
25200 21247
21098 23078
22553 24366
24250 20296
24003 21585
22581 23611
25471 25120
20578 24225
23255 19924
22013 22553
22021 23790
23859 25774
23034 24244
24060 25161
22933 20818
20932 22483
23299 24560
24002 21568
19818 24806
25357 25540
22458 19621
23552 21978
21995 25291
25753 23542
25385 25800
25916 22962
21427 24900
24192 21180
24023 21394
22476 20786
24311 21988
21119 25237
22213 21234
25631 21180
21956 22919
24250 20715
22196 22579
20799 22466
23099 21488
23740 24367
19489 23552
20545 22418
22881 24158
20064 23039
21498 22430
24250 23634
20500 21123
22239 24251
22052 23825
22663 25468
20415 25161
21446 23680
24002 22583
21033 22424
22966 19682
25083 24584
23852 23991
25449 23991
24047 23691
21315 23078
23444 21119
20316 24188
25503 20426
21225 25512
21614 22511
21859 25353
22559 20322
23800 21670
22933 21127
20252 20873
23661 20305
23852 21681
20249 22373
25909 23706
21276 22957
24565 25225
23152 23611
21643 23623
23603 22065
20625 22919
22588 19473
25813 20457
24931 21138
22196 22418
25339 25772
23800 23399
23389 24366
22239 21128
22358 20266
22970 24861
22761 22703
22257 25074
23995 24541
21681 25114
25593 25909
23461 20322
24220 22185
25854 21332
23983 24934
21119 23230
19997 25772
22546 19949
19540 22975
21160 22666
24255 24808
21599 22297
23536 20283
19869 25512
21476 24025
24806 22012
23086 20423
20785 22576
25124 24296
25905 21156
24692 20051
20965 23179
25652 25372
24288 19602
21901 26099
23712 21159
24993 19739
24831 21526
23352 19628
23485 21275
23870 24277
21424 24277
20010 22776
21224 24224
23092 22881
23457 24987
23852 22184
23091 20470
25820 23176
24717 22881
24631 25781
22535 23799
23106 21119
22284 21978
24248 20018
24288 23669
22224 25772
22854 23179
19764 23090
23983 24434
19548 25086
19608 24756
23732 24508
19560 21358
25449 20709
23838 21276
22213 22067
22919 22023
20212 24220
23099 21973
26207 20494
24206 22553
24752 22911
24997 19839
23250 23089
25323 24413
20812 22671
21498 22382
26017 20684
23154 20900
23444 22184
21901 19518
21119 24884
21332 24002
23099 21820
22985 24604
26122 25929
21229 20319
22532 20266
19540 24413
23246 22486
23795 19881
23902 21382
24002 22560
23370 25073
24192 22683
24060 22128
23940 20682
25831 20073
23255 23534
24909 25512
22636 20515
23732 25612
22577 24507
22424 21146
21842 23638
24144 21119
25659 25108
21859 22861
25308 21031
24663 20171
25212 25046
23993 21398
23800 21538
20643 26058
24749 25703
20357 22768
20674 25275
21119 22776
25512 20823
21600 24002
23375 21491
19739 20500
23836 21584
20658 23230
24536 25774
21707 23297
20140 23444
20082 22466
20242 22656
19633 24251
24224 24413
25308 21645
23099 21262
19486 22666
21465 24225
23852 22657
23790 21610
23234 19689
25308 21830
23890 25018
22073 20384
25353 21549
25831 21213
24749 24217
25030 19628
24512 22090
20629 22275
22354 21119
19543 23264
24248 23841
21859 23889
20596 24836
20014 24277
24454 25168
21109 23111
23291 25153
23264 20529
22768 20227
22772 23552
21104 23078
22424 22960
20674 23078
19695 23176
25822 21820
25772 20125
20189 24072
20665 25735
20921 22833
21986 23188
20958 23153
23800 20291
21901 25355
21510 23623
25608 22118
24560 21610
20945 25848
21987 21864
21295 26058
25615 20500
25238 22549
19722 22699
19866 24806
24830 22878
23852 20804
20307 19904
19754 23078
21892 23902
22261 25355
23761 20995
22636 21840
22594 21412
22034 23264
25459 21598
22331 23852
19475 25962
24770 24716
23246 19661
25729 21901
24758 25772
19490 24947
21187 23099
24107 25355
22747 24290
25641 20155
22358 19543
23230 21381
21446 23800
25220 24850
23324 25379
23437 21119
20340 24836
24250 23465
20351 25161
25013 22148
25161 23773
23712 22878
24935 23747
23091 21920
25822 21188
23086 23129
19923 24413
21156 22549
25013 22184
25402 21378
24248 21795
20993 24412
24954 20171
22719 20931
22535 22260
26017 21599
22791 20788
20818 23709
25402 19688
25449 23324
21680 25355
22156 19739
23444 21548
20055 25608
21859 24987
22650 22095
23210 19618
22090 24366
20164 22650
24206 21276
21590 23852
19812 23264
23052 20457
20031 24248
23059 20493
25751 25772
24462 19873
25297 24987
23852 21138
24631 24181
21629 23203
20351 24297
21275 20094
19683 24769
20916 22358
26017 25385
25160 24297
25083 21498
21901 24574
23394 23552
23704 22373
20409 24288
23205 25109
21781 24811
22623 21934
21669 23682
24831 25449
25639 25834
22829 20137
23582 23168
24171 19671
21538 24025
23172 22158
22933 20493
24033 25161
20192 23297
23171 22204
19512 25321
25854 23010
21568 25362
23940 20137
21491 23099
22628 24311
25355 24257
24180 19996
21359 23623
23429 24060
23154 20231
23297 20103
21062 21901
24025 20014
25828 20781
21318 22829
23845 21216
21576 24237
21491 22358
21731 24277
22497 20305
24595 21276
22330 21073
20299 19611
21829 25605
22631 22128
25275 20983
19560 25608
24217 25412
21318 23800
24234 21488
22919 22118
23800 20023
25284 23043
21747 23733
21648 23594
24808 20509
22086 22861
24473 19927
24695 20283
24358 20744
23768 24624
26058 21470
21791 20246
23154 19753
20916 22922
20873 22207
21224 24504
20394 25641
25021 25412
21137 22919
25468 20811
21129 24836
24057 21138
23224 20066
22204 21787
21104 25909
22747 19489
24745 20891
23800 20832
23995 25049
21993 20154
22830 19538
21115 25355
21301 24251
24133 20377
20766 22600
25584 20283
21129 24412
23311 23005
24144 19798
26017 24171
21306 25976
23800 20608
19527 25390
25124 22224
24772 22113
25916 21568
23680 19638
21129 23078
23361 25030
24695 21119
24325 22400
23193 20852
21539 22528
25495 26031
25641 24302
23559 24756
26002 20687
26170 22761
19513 24333
19764 21275
20343 25355
22077 24997
21465 22974
21781 24025
21995 19870
21677 19801
21465 24390
22535 24504
20173 25772
22031 23889
20242 25212
25000 24738
24288 21586
23852 21031
20164 25909
24288 21102
20324 23712
21149 21800
22600 20154
20351 23972
25810 21645
23241 20724
21572 22184
21845 22373
23444 21835
22985 23209
19512 24250
21856 21216
20921 25781
21996 23485
23193 19513
20682 24906
21895 23552
22086 22703
22775 23552
22379 26164
25353 25075
22925 24224
24789 23718
21295 23845
25933 25412
24536 19621
23680 22184
22659 24248
24792 20266
20356 22975
23151 25512
21733 25275
24685 19982
19636 22531
22744 19642
23800 20313
22275 19553
21046 22260
24495 23891
22659 23429
24194 19930
26152 24274
23010 23646
22927 22652
23033 21781
24610 21734
23800 19923
23135 21901
22919 21488
23172 19782
23151 26082
23264 23602
20536 22485
21876 23733
22511 20195
22927 20129
23246 19682
25608 20616
22330 20643
22154 24161
23001 20552
22532 20682
21974 23638
23238 23832
24168 21901
23480 23638
20343 22919
23517 21753
22839 23399
21761 21358
23516 21663
23457 19983
24745 21128
20024 23852
22382 21262
23845 21470
24565 23706
23903 22189
21920 25754
21859 23682
22927 22128
21713 25182
20909 22528
21468 24984
25000 21290
26170 21469
22077 23525
23903 20608
25932 25947
23154 20682
21009 25612
25822 21901
21446 24237
20195 25070
24692 23836
21119 24728
23940 23092
24023 21138
24434 22652
25753 22778
19688 24008
24315 23602
21761 26014
22659 21499
25168 20018
24631 25161
22855 20023
21119 22960
23836 19949
23087 24413
23582 20195
20286 25772
23611 23619
21756 19870
22399 21267
22535 25976
20356 24002
22531 20246
21446 25015
25156 23538
25932 19792
25457 20979
24938 25449
20085 26082
19602 22483
23485 21283
21101 23788
23740 20608
23044 23659
21450 23859
22082 22919
24452 21138
26081 25764
22436 22003
24010 25355
22470 21101
23027 22963
21859 22485
23429 23993
20098 23090
20444 22549
23909 23639
26152 25138
20909 24192
23352 22113
21859 23264
19791 20406
22627 20608
22424 24346
25390 25027
22308 19771
20558 24060
23800 22663
23740 22560
22549 20292
25618 23275
20315 22963
22497 19996
23800 20484
25909 21538
21995 25540
22559 21138
25652 25339
22261 25449
20387 23410
24452 20069
24314 25153
23576 24504
23790 21138
23744 25754
19931 23017
20098 25976
24135 23324
23179 19930
22583 26020
25402 20177
22535 20616
23845 21892
25781 25771
21166 23559
20411 19611
25800 20291
25220 22106
23099 19717
22486 19878
25753 19819
24047 24624
24647 25074
23593 23176
22719 19801
25828 19792
23818 25362
22157 23733
19993 22549
25722 21807
22791 22539
23903 23052
22933 23358
25000 20766
20616 24241
25114 21138
20689 22650
21993 19943
22663 24884
22938 19889
19689 22466
21997 23043
22073 22666
25449 20023
25308 19798
24023 21681
23179 22424
22839 19816
23837 20493
25712 25772
20018 23410
23263 21766
25822 24032
22636 21564
20553 24685
19838 22830
22636 21442
19895 24322
23193 19763
25000 21941
23011 24315
21109 22791
23761 23762
24887 23718
23730 20652
21638 20249
26082 20266
25114 22113
23386 23150
24420 24297
22636 21538
25083 22878
23205 22090
21404 24769
23188 20445
21829 22286
21248 21924
22588 20945
23593 21149
23740 19651
20228 25355
22658 23047
26152 25751
24610 20493
23626 20820
23078 20499
23078 21392
23078 19529
23078 21901
23078 20867
23078 21978
23078 20979
23078 21138
23078 21159
23078 20303
23078 19829
23078 22024
23078 19771
23078 22189
23078 20025
23078 22102
23078 20283
23078 21892
23078 20509
23078 20371
23078 19792
23078 22184
23078 23818
23078 21934
23078 19717
23078 20305
23078 21797
23078 21119
23078 22583
23078 21381
23078 20811
23078 22801
23078 22077
23078 19952
23078 21891
23078 21560
23078 23148
23078 19924
23078 20411
23078 19768
23078 19782
23078 19839
23078 20566
23078 20786
23078 23205
23078 20918
23078 21240
23078 20945
23078 22553
23078 20891
23078 22260
23078 20376
23078 21137
23078 22652
23078 21448
23078 22554
23078 21229
23078 20159
23078 22148
23078 20625
23078 23034
23078 19692
23078 21946
23078 19693
23078 23010
22184 25672
22184 23709
22184 24097
22184 19737
22184 25754
22184 22861
22184 25781
22184 25772
22184 22919
22184 19792
22184 20322
22184 22776
22184 22358
22184 23619
22184 25512
22184 23663
22184 26078
22184 23859
22184 22666
22184 23472
22184 24080
22184 23902
22184 20592
22184 23494
22184 24225
22184 23659
22184 23230
22184 24237
22184 20457
22184 24025
22184 23045
22184 24277
22184 25114
22184 24139
22184 22930
22184 22345
22184 22532
22184 22892
22184 23788
22184 24183
22184 25237
22184 23120
22184 25379
22184 19633
22184 23372
22184 23620
22184 24484
22184 25923
22184 24161
22184 23176
22184 22975
22184 24297
22184 24574
22184 24756
22184 24954
22184 24997
22184 25195
22184 22911
22184 24592
22184 25362
22184 23761
22184 23549
22184 24302
22184 23479
22184 24906
22184 23798
22184 23790
24596 23154
21188 23154
19534 23154
21539 23154
21974 23154
20692 23154
21115 23154
20332 23154
23361 23154
19527 23154
21876 23154
22539 23154
21142 23154
20689 23154
22400 23154
21498 23154
19994 23154
24060 23154
20324 23154
21491 23154
24909 23154
24608 23154
20865 23154
20451 23154
23052 23154
22859 23154
21966 23154
19843 23154
21967 23154
20350 23154
24188 23154
23044 23154
21246 23154
20242 23154
25932 23154
20916 23154
22758 23154
21227 23154
20164 23154
21924 23154
19683 23154
20433 23154
19757 23154
21238 23154
24677 23154
20874 23154
22775 23154
19556 23154
21295 23154
21037 23154
19838 23154
20895 23154
21901 23154
19931 23154
22021 23154
23011 23154
19844 23154
20055 23154
24702 23154
21137 23154
20459 23154
20066 23154
19647 23154
19602 23154
20194 23154
19630 23154
22080 23154
19624 23154
23818 23154
20500 23352
22294 23352
21941 23352
19618 23352
21244 23352
20921 23352
19787 23352
21974 23352
21566 23352
21875 23352
22204 23352
20874 23352
21700 23352
22604 23352
21670 23352
20196 23352
21443 23352
21498 23352
21229 23352
19527 23352
19922 23352
19651 23352
22563 23352
21465 23352
21713 23352
22021 23352
20682 23352
21119 23352
21735 23352
21995 23352
21160 23352
21683 23352
20066 23352
21825 23352
19824 23352
23297 23352
20387 23352
22228 23352
22498 23352
23566 23352
19624 23352
23399 23352
20616 23352
20242 23352
23261 23352
23324 23352
22773 23352
21614 23352
20246 23352
22333 23352
21112 23352
22652 23352
21491 23352
22184 23352
21290 23352
23161 23352
20916 23352
19802 23352
20195 23352
21318 23352
19795 23352
22629 23352
22116 23352
21747 23352
21632 23352
20988 23352
23047 23352
23314 23352
20932 23352
23069 23352
22249 23352
19722 23352
23561 21995
23099 21995
24830 21995
23059 21995
22975 21995
23031 21995
23525 21995
25501 21995
25449 21995
24749 21995
22736 21995
23078 21995
24771 21995
22213 21995
24290 21995
25909 21995
23852 21995
22911 21995
22857 21995
25751 21995
24396 21995
23712 21995
23502 21995
25584 21995
25353 21995
22636 21995
23444 21995
23165 21995
23740 21995
25166 21995
23899 21995
21971 21995
24533 21995
25618 21995
22927 21995
24772 21995
22546 21995
24023 21995
23870 21995
23224 21995
23680 21995
24060 21995
23845 21995
24003 21995
23800 21995
22933 21995
23798 21995
24452 21995
23868 21995
23659 21995
20249 21995
20858 21995
26143 21995
25107 21995
23086 21995
24402 21995
23437 21995
23045 21995
23903 21995
23429 21995
22528 21995
24993 21995
22990 21995
24607 21995
24378 21995
22550 21995
23719 21995
24139 21995
24057 21995
25010 21995
23375 21995
23975 21995
24188 23579
22331 23579
19527 23579
22436 23579
23460 23579
20107 23579
21973 23579
24976 23579
20140 23579
24032 23579
21990 23579
20657 23579
19795 23579
20961 23579
21873 23579
21318 23579
22046 23579
24367 23579
19914 23579
22859 23579
21513 23579
24224 23579
24345 23579
24631 23579
21122 23579
20684 23579
21996 23579
20451 23579
22629 23579
21586 23579
25402 23579
23919 23579
20332 23579
23299 23579
22791 23579
24326 23579
20423 23579
19560 23579
23097 23579
22034 23579
20665 23579
21705 23579
19922 23579
24322 23579
21098 23579
21826 23579
20998 23579
19998 23579
22080 23579
22498 23579
23057 23579
20598 23579
19766 23579
21547 23579
21011 23579
21700 23579
24553 23579
23639 23579
20167 23579
20768 23579
19755 23579
21246 23579
21189 23579
23044 23579
21590 23579
19534 23579
21733 23579
21539 23579
20196 23579
19630 23579
20024 23579
20688 23579
21009 23579
20283 24592
20283 23176
20283 23230
20283 23620
20283 22382
20283 19687
20283 24944
20283 25362
20283 24884
20283 22532
20283 22975
20283 22788
20283 22600
20283 23531
20283 25512
20283 24507
20283 22358
20283 22776
20283 23812
20283 22345
20283 23646
20283 24859
20283 23663
20283 25237
20283 22699
20283 24302
20283 23573
20283 23523
20283 22645
20283 20322
20283 20264
20283 24135
20283 22528
20283 25781
20283 25702
20283 22919
20283 25187
20283 23761
20283 26107
20283 22770
20283 23788
20283 24277
20283 23172
20283 25540
20283 22511
20283 23352
20283 25449
20283 25049
20283 25355
20283 26114
20283 22930
20283 25070
20283 24237
20283 25813
20283 24002
20283 21062
20283 24089
20283 24166
20283 25772
20283 22583
20283 23859
20283 23018
20283 22546
20283 23303
20283 23045
20283 25108
20283 24533
20283 25114
20283 23163
20283 24756
20283 22666
20283 23709
20283 24287
23579 23052
23579 20171
23579 23296
23579 20715
23579 21947
23579 20014
23579 23839
23579 25021
23579 20283
23579 20709
23579 22878
23579 22294
23579 21594
23579 22118
23579 20812
23579 23911
23579 23261
23579 19689
23579 19877
23579 20873
23579 23594
23579 23331
23579 19778
23579 20246
23579 21440
23579 22214
23579 21138
23579 24274
23579 19505
23579 21564
23579 23559
23579 23982
23579 21998
23579 20411
23579 21842
23579 25027
23579 20958
23579 24793
23579 19692
23579 24026
23579 21995
23579 20354
23579 19782
23579 24275
23579 21216
23579 24255
23579 22333
23579 21883
23579 19916
23579 23043
23579 23360
23579 22424
23579 22157
23579 20550
23579 23753
23579 24789
23579 23324
23579 21573
23579 25647
23579 21610
23579 20372
23579 21381
23579 20890
23579 23549
23579 21869
23579 20154
23579 20870
23579 24371
23579 20447
23579 21681
23579 23566
23579 22102
23579 23386
23579 21797
23579 21302
23579 21119
25251 25125
25251 24282
25251 25273
25251 20550
25251 19683
25251 19513
25251 23049
25251 24345
25251 20228
25251 25565
25251 20820
25251 21892
25251 24060
25251 19952
25251 25160
25251 23594
25251 25146
25251 23090
25251 21934
25251 24855
25251 23995
25251 22563
25251 25138
25251 21554
25251 25074
25251 22077
25251 21067
25251 22340
25251 20890
25251 21835
25251 19543
25251 24789
25251 19706
25251 20107
25251 24542
25251 25339
25251 21840
25251 24257
25251 19556
25251 21594
25251 19693
25251 19994
25251 22773
25251 25182
25251 22663
25251 20998
25251 24959
25251 24296
25251 24247
25251 23841
25251 24111
25251 21302
25251 20993
25251 26069
25251 20768
25251 20116
25251 22560
25251 21276
25251 25639
25251 19473
25251 23780
25251 25248
25251 24188
25251 21404
25251 20459
25251 19618
25251 23011
25251 25088
25251 19695
25251 21275
25251 19768
25251 25709
25251 21995
25251 22067
25251 23460
25251 21734
25251 20061
25598 24008
25598 24542
25598 21901
25598 19803
25598 21513
25598 19927
25598 22110
25598 24449
25598 21488
25598 19782
25598 20371
25598 19766
25598 21476
25598 22294
25598 21234
25598 21966
25598 20818
25598 21470
25598 25208
25598 19874
25598 25630
25598 24909
25598 21102
25598 25905
25598 21380
25598 19873
25598 19770
25598 20159
25598 19701
25598 21700
25598 20884
25598 24481
25598 21998
25598 25103
25598 25703
25598 20324
25598 21397
25598 20799
25598 25256
25598 20433
25598 20891
25598 22136
25598 23639
25598 25491
25598 21990
25598 21733
25598 23732
25598 21316
25598 25510
25598 25243
25598 23677
25598 23296
25598 25160
25598 21154
25598 23594
25598 20186
25598 23275
25598 24217
25598 21564
25598 20497
25598 19890
25598 24631
25598 22113
25598 19877
25598 20423
25598 23313
25598 21160
25598 22261
25598 21295
25598 21824
25598 22204
25598 20643
25598 25161
25598 20682
25598 23074
25598 21302
25598 25673
25598 20876
25598 21756
25598 20372
23106 21465
24569 21465
24802 21465
22497 21465
24624 21465
25168 21465
22990 21465
23666 21465
23485 21465
24139 21465
25512 21465
22650 21465
25017 21465
24509 21465
25909 21465
22736 21465
23375 21465
23852 21465
22911 21465
25026 21465
24002 21465
23091 21465
22485 21465
24595 21465
25854 21465
23099 21465
25781 21465
23502 21465
25493 21465
23516 21465
23250 21465
23039 21465
21062 21465
23798 21465
24840 21465
22829 21465
22744 21465
19870 21465
22636 21465
23868 21465
23171 21465
23444 21465
24250 21465
23903 21465
23165 21465
23712 21465
23429 21465
23800 21465
23654 21465
24574 21465
23078 21465
23603 21465
23033 21465
23869 21465
23111 21465
26058 21465
23206 21465
23836 21465
24297 21465
25524 21465
24327 21465
24057 21465
23560 21465
24671 21465
21648 21465
24025 21465
24235 21465
24993 21465
22922 21465
23561 21465
24144 21465
26170 21465
23154 21465
20631 21465
23801 21465
23350 21465
23747 21465
25449 21465
24031 21465
23972 21465
24749 21465
23086 21465
24429 21465
21109 22938
22636 22938
24610 22938
22650 22938
19838 22938
26017 22938
20466 22938
21224 22938
22182 22938
22061 22938
20788 22938
21497 22938
19948 22938
21906 22938
22398 22938
21053 22938
21713 22938
19904 22938
24749 22938
21286 22938
21959 22938
20500 22938
20650 22938
24023 22938
23179 22938
22630 22938
25000 22938
23099 22938
21636 22938
19837 22938
21792 22938
22194 22938
19631 22938
21377 22938
22535 22938
20334 22938
20544 22938
20857 22938
20073 22938
20176 22938
22839 22938
23171 22938
21505 22938
21402 22938
19492 22938
20997 22938
20179 22938
21111 22938
21525 22938
23444 22938
20453 22938
20081 22938
21000 22938
21499 22938
22735 22938
22002 22938
21732 22938
22187 22938
21757 22938
22539 22938
20556 22938
22207 22938
24181 22938
20774 22938
21659 22938
20991 22938
22054 22938
20578 22938
20315 22938
21412 22938
20691 22938
20708 22938
21301 22938
22275 22938
22327 22938
20628 22938
20445 22938
19703 22938
19633 22938
22111 22938
20871 22938
21673 22938
20097 22938
22154 22938
21971 22938
20875 22938
22003 22938
21024 23958
21024 24861
21024 25605
21024 25166
21024 24144
21024 23800
21024 23761
21024 23045
21024 25223
21024 23091
21024 24002
21024 23052
21024 25108
21024 23429
21024 24968
21024 22911
21024 23669
21024 24402
21024 23209
21024 23128
21024 22631
21024 23271
21024 23120
21024 23078
21024 23693
21024 23772
21024 23619
21024 23523
21024 21228
21024 24465
21024 22795
21024 24517
21024 22892
21024 23862
21024 24802
21024 23317
21024 25161
21024 24595
21024 25362
21024 22014
21024 23788
21024 25013
21024 25030
21024 21497
21024 23889
21024 21349
21024 24624
21024 25114
21024 21577
21024 24484
21024 23311
21024 23972
21024 24287
21024 22919
21024 24241
21024 22960
21024 23726
21024 25652
21024 22682
21024 24080
21024 23646
21024 23626
21024 22636
21024 25772
21024 24582
21024 23099
21024 23620
21024 24848
21024 23852
21024 23176
21024 23479
21024 24708
21024 24057
21024 24183
21024 25781
21024 23861
21024 25420
21024 25237
21024 23661
21024 23936
21024 24297
21024 20019
21024 22625
21024 24302
21024 24390
21024 23993
21024 25412
21024 23518
21024 23799
21024 24493
21024 24927
21024 22594
21024 22788
21024 22891
21024 24934
21024 25424
21024 24374
21024 22765
24831 23255
20688 23255
24178 23255
20545 23255
20909 23255
23275 23255
21187 23255
20823 23255
20811 23255
22895 23255
23612 23255
21734 23255
21538 23255
20313 23255
22683 23255
20709 23255
23832 23255
21656 23255
21965 23255
20785 23255
19812 23255
23848 23255
21825 23255
22663 23255
21295 23255
21009 23255
20945 23255
22604 23255
19548 23255
25174 23255
19606 23255
21448 23255
22629 23255
20107 23255
25880 23255
23261 23255
21995 23255
21302 23255
21945 23255
19791 23255
19717 23255
23991 23255
22918 23255
21412 23255
24911 23255
22859 23255
21781 23255
20867 23255
23795 23255
23161 23255
21586 23255
22052 23255
23043 23255
20137 23255
21901 23255
23995 23255
23205 23255
24806 23255
23010 23255
20834 23255
22653 23255
21465 23255
20186 23255
21112 23255
22652 23255
20501 23255
23324 23255
20998 23255
22563 23255
22559 23255
19505 23255
19489 23255
19608 23255
21298 23255
22340 23255
23331 23255
23780 23255
21229 23255
20687 23255
23092 23255
19900 23255
24243 21427
24243 21127
24243 25703
24243 23684
24243 22294
24243 20493
24243 21465
24243 24800
24243 23043
24243 21382
24243 23991
24243 21498
24243 24596
24243 24255
24243 21290
24243 21138
24243 21394
24243 24026
24243 19548
24243 23958
24243 24188
24243 20545
24243 22021
24243 23586
24243 23049
24243 22663
24243 21629
24243 22970
24243 24345
24243 25725
24243 22423
24243 23092
24243 23460
24243 23331
24243 21770
24243 22260
24243 21115
24243 23549
24243 23859
24243 21404
24243 22023
24243 24178
24243 20730
24243 24631
24243 19505
24243 21515
24243 22184
24243 22067
24243 19812
24243 19651
24243 19606
24243 25614
24243 20961
24243 24793
24243 23386
24243 23011
24243 21119
24243 21488
24243 25828
24243 23844
24243 23034
24243 24366
24243 20785
24243 22628
24243 21440
24243 25813
24243 21995
24243 19998
24243 20154
24243 24422
24243 24775
24243 19771
24243 21024
24243 24959
24243 24266
24243 24282
24243 21216
24243 20536
24243 23799
24243 20075
24243 19782
24243 23148
24243 20690
24243 20274
24243 25088
24243 23275
24243 21302
24243 25712
24243 22972
24243 21275
24243 22921
24243 22086
24243 22938
24243 21978
24243 19795
24243 25659
24243 21998
24243 21892
25015 25490
25015 20874
25015 21942
25015 21538
25015 21941
25015 20804
25015 21663
25015 21702
25015 21465
25015 22653
25015 21825
25015 24631
25015 23480
25015 24758
25015 21024
25015 20493
25015 22146
25015 21610
25015 24959
25015 21568
25015 20411
25015 21681
25015 19505
25015 25260
25015 19840
25015 24133
25015 19771
25015 24405
25015 24274
25015 20643
25015 21260
25015 23982
25015 24740
25015 24368
25015 20789
25015 22021
25015 21700
25015 22184
25015 23799
25015 20082
25015 24789
25015 21906
25015 20865
25015 22331
25015 25593
25015 25385
25015 25021
25015 21592
25015 20608
25015 20870
25015 19682
25015 21826
25015 21913
25015 20832
25015 21875
25015 21459
25015 22190
25015 25673
25015 22938
25015 25741
25015 23097
25015 21119
25015 24632
25015 21122
25015 21138
25015 20064
25015 23461
25015 22261
25015 20135
25015 22085
25015 19930
25015 23011
25015 19957
25015 24598
25015 24793
25015 20299
25015 19874
25015 25188
25015 25372
25015 23611
25015 21573
25015 20283
25015 24238
25015 21901
25015 22115
25015 20718
25015 21427
25015 25047
25015 24903
25015 19560
25015 23744
24987 25027
24987 20833
24987 21073
24987 24855
24987 20552
24987 24850
24987 23092
24987 22167
24987 24923
24987 22963
24987 23857
24987 21366
24987 21895
24987 20241
24987 24481
24987 23820
24987 24414
24987 21119
24987 19578
24987 23611
24987 23623
24987 22082
24987 24220
24987 20823
24987 19923
24987 23818
24987 24178
24987 24257
24987 23372
24987 24740
24987 23377
24987 23480
24987 22450
24987 22553
24987 21220
24987 22021
24987 19689
24987 20555
24987 21705
24987 25459
24987 19756
24987 21465
24987 21974
24987 23057
24987 21990
24987 19840
24987 22121
24987 21560
24987 22113
24987 25323
24987 21443
24987 24345
24987 22210
24987 24826
24987 21262
24987 19949
24987 22041
24987 24026
24987 25047
24987 23161
24987 19957
24987 19475
24987 20010
24987 24463
24987 22331
24987 23549
24987 20296
24987 21956
24987 20870
24987 21735
24987 21504
24987 21906
24987 21389
24987 24677
24987 19830
24987 20501
24987 20607
24987 24775
24987 24834
24987 21122
24987 23470
24987 22559
24987 19630
24987 21566
24987 25593
24987 21610
24987 21573
24987 23297
24987 21820
24987 22761
24987 24758
24987 25260
24987 21561
24987 20190
24987 24400
24987 20358
24987 24887
24987 21901
24987 22204
24987 23768
24987 25813
24987 22136
24987 19994
24987 21875
24987 25614
24987 22046
25274 24217
25274 19538
25274 25976
25274 23745
25274 26133
25274 21509
25274 21366
25274 19689
25274 21741
25274 24179
25274 19756
25274 24158
25274 19682
25274 23832
25274 24366
25274 25046
25274 19969
25274 24257
25274 20515
25274 19798
25274 24414
25274 23297
25274 22604
25274 20171
25274 23360
25274 21276
25274 23168
25274 20116
25274 20016
25274 23594
25274 23844
25274 20387
25274 22035
25274 25125
25274 22938
25274 22921
25274 24763
25274 20411
25274 20291
25274 20900
25274 21770
25274 23958
25274 21488
25274 19651
25274 25073
25274 23372
25274 19839
25274 25273
25274 21440
25274 23839
25274 21413
25274 19673
25274 25106
25274 25243
25274 24247
25274 25120
25274 23758
25274 22260
25274 20870
25274 21594
25274 21180
25274 23616
25274 25061
25274 21568
25274 25138
25274 25021
25274 24481
25274 25103
25274 24567
25274 25720
25274 21584
25274 23513
25274 25776
25274 23831
25274 22146
25274 21470
25274 20069
25274 25771
25274 19894
25274 24911
25274 19829
25274 20709
25274 19782
25274 21397
25274 20371
25274 25414
25274 23386
25274 19884
25274 20227
25274 21465
25274 23534
25274 22373
25274 23090
25274 24214
25274 20979
25274 21934
25274 19543
25274 21585
25274 20823
25274 25146
25274 26030
25274 23634
25274 21096
25274 19608
25274 20931
25274 21364
25274 25782
25274 25384
25274 20372
25274 21267
25274 19873
25274 23043
24716 24800
24716 19691
24716 23148
24716 24638
24716 20688
24716 21656
24716 23706
24716 19706
24716 20069
24716 21597
24716 24224
24716 24052
24716 19766
24716 23559
24716 22042
24716 19510
24716 22228
24716 20624
24716 23677
24716 21610
24716 21509
24716 20066
24716 23299
24716 24632
24716 24220
24716 21244
24716 19803
24716 20684
24716 20720
24716 23780
24716 19755
24716 20028
24716 22023
24716 22554
24716 21127
24716 19770
24716 23287
24716 23377
24716 22141
24716 23745
24716 21800
24716 23446
24716 21101
24716 20358
24716 21490
24716 22034
24716 24758
24716 21892
24716 19949
24716 24255
24716 22117
24716 21240
24716 22461
24716 21797
24716 21995
24716 19943
24716 23168
24716 20921
24716 22253
24716 22065
24716 22073
24716 20979
24716 20545
24716 24631
24716 22400
24716 20228
24716 19930
24716 23314
24716 20402
24716 22082
24716 21024
24716 23360
24716 21901
24716 21559
24716 22106
24716 22937
24716 20819
24716 21138
24716 23586
24716 19835
24716 20411
24716 20321
24716 20368
24716 20186
24716 21073
24716 23534
24716 20241
24716 22423
24716 24063
24716 19651
24716 21970
24716 20283
24716 19673
24716 23624
24716 22938
24716 21956
24716 21549
24716 19785
24716 22331
24716 23839
24716 19721
24716 19689
24716 20159
24716 22041
24716 20135
24716 20818
23865 23844
23865 25182
23865 19943
23865 22963
23865 24414
23865 20241
23865 21883
23865 22023
23865 21138
23865 25703
23865 19874
23865 21607
23865 23594
23865 24214
23865 23684
23865 20387
23865 21413
23865 19778
23865 21440
23865 20883
23865 20608
23865 21465
23865 23090
23865 23706
23865 23616
23865 19558
23865 22970
23865 23480
23865 25187
23865 23859
23865 22113
23865 24368
23865 25384
23865 20372
23865 24625
23865 22146
23865 23566
23865 21451
23865 23446
23865 23839
23865 23461
23865 23372
23865 25524
23865 20891
23865 20625
23865 24274
23865 23296
23865 24409
23865 21934
23865 19543
23865 20230
23865 20497
23865 21427
23865 20980
23865 21128
23865 20682
23865 23043
23865 24217
23865 20820
23865 21946
23865 23773
23865 23730
23865 19753
23865 22373
23865 23513
23865 24238
23865 23958
23865 25607
23865 20475
23865 20786
23865 21610
23865 25079
23865 22118
23865 19782
23865 21632
23865 21220
23865 22102
23865 20987
23865 19816
23865 20016
23865 19982
23865 23386
23865 23140
23865 21978
23865 22014
23865 21670
23865 19798
23865 21123
23865 22560
23865 20852
23865 24463
23865 21275
23865 24366
23865 23377
23865 19739
23865 22938
23865 22024
23865 19884
23865 22972
23865 19873
23865 23799
23865 20979
23865 23331
23865 23074
23865 20246
23865 20329
19812 23632
21509 23632
19975 23632
19671 23632
22922 23632
21279 23632
20891 23632
20734 23632
24631 23632
23919 23632
23151 23632
19991 23632
22117 23632
24060 23632
23958 23632
22927 23632
21002 23632
20900 23632
23375 23632
21940 23632
20434 23632
23263 23632
20473 23632
23033 23632
23680 23632
22080 23632
22106 23632
22073 23632
22050 23632
23915 23632
22122 23632
21719 23632
22658 23632
25598 23632
23489 23632
22878 23632
23995 23632
21275 23632
25010 23632
19746 23632
19987 23632
21791 23632
19888 23632
19556 23632
23719 23632
20873 23632
20826 23632
21367 23632
23309 23632
20813 23632
21138 23632
21645 23632
23949 23632
20839 23632
22609 23632
21531 23632
21318 23632
25672 23632
20186 23632
23789 23632
19688 23632
21394 23632
23799 23632
20167 23632
19484 23632
22765 23632
19691 23632
20024 23632
19916 23632
22322 23632
20402 23632
23377 23632
22966 23632
20819 23632
20968 23632
19739 23632
23148 23632
23559 23632
21047 23632
20604 23632
23566 23632
21024 23632
21494 23632
20634 23632
23865 23632
23090 23632
23350 23632
23179 23632
19841 23632
22791 23632
24884 23632
23795 23632
23386 23632
23444 23632
22920 23632
20136 23632
20609 23632
21119 23632
24192 23632
20493 23078
20493 26114
20493 23045
20493 23852
20493 22650
20493 23027
20493 23790
20493 22922
20493 25772
20493 24023
20493 25088
20493 23099
20493 23669
20493 24906
20493 22899
20493 23788
20493 22857
20493 23489
20493 23798
20493 25471
20493 25108
20493 24139
20493 24161
20493 25729
20493 22795
20493 24192
20493 22919
20493 23437
20493 23800
20493 23680
20493 23582
20493 24412
20493 22957
20493 21648
20493 22776
20493 23176
20493 23936
20493 24057
20493 25602
20493 24302
20493 24861
20493 23802
20493 23836
20493 26201
20493 24574
20493 24288
20493 23772
20493 23303
20493 24166
20493 25187
20493 24241
20493 25212
20493 23891
20493 21062
20493 22546
20493 24807
20493 24237
20493 22535
20493 23859
20493 22297
20493 24840
20493 23903
20493 25114
20493 23579
20493 24517
20493 22109
20493 22185
20493 23069
20493 25166
20493 23646
20493 24663
20493 23848
20493 25608
20493 20322
20493 25493
20493 24842
20493 23845
20493 24277
20493 23536
20493 23154
20493 23429
20493 24484
20493 23382
20493 23165
20493 24396
20493 24374
20493 24997
20493 23609
20493 25781
20493 25512
20493 19904
20493 23728
20493 24762
20493 25237
20493 23250
20493 24462
20493 24080
20493 24756
20493 22623
20493 22735
20493 23638
20493 23619
20493 23352
20493 22830
20493 22625
20493 23603
20493 22975
20493 26107
20493 25362
20493 23975
20493 24745
23585 19558
23585 20069
23585 20354
23585 20227
23585 24257
23585 20305
23585 22373
23585 22663
23585 24366
23585 20195
23585 23993
23585 20171
23585 23991
23585 23386
23585 22110
23585 25243
23585 21427
23585 21995
23585 21413
23585 22970
23585 23706
23585 25510
23585 19605
23585 23799
23585 19505
23585 21906
23585 21770
23585 21448
23585 22024
23585 22772
23585 20545
23585 23911
23585 20945
23585 20352
23585 23043
23585 19768
23585 23549
23585 21382
23585 23331
23585 22424
23585 25890
23585 19682
23585 24911
23585 21568
23585 21229
23585 24160
23585 20987
23585 20625
23585 23296
23585 19691
23585 20823
23585 23594
23585 24567
23585 20566
23585 21160
23585 25323
23585 22943
23585 19782
23585 20715
23585 25174
23585 23616
23585 20296
23585 20552
23585 22938
23585 20313
23585 21470
23585 19692
23585 23372
23585 19884
23585 23034
23585 20371
23585 19651
23585 21632
23585 22067
23585 20570
23585 20509
23585 22128
23585 23632
23585 24380
23585 21440
23585 20690
23585 25103
23585 20016
23585 22214
23585 21734
23585 21538
23585 21465
23585 24638
23585 22962
23585 24179
23585 24238
23585 20958
23585 23841
23585 20550
23585 20812
23585 19756
23585 23730
23585 24217
23585 21978
23585 23773
23585 21220
23585 24158
23585 25454
23585 24008
23585 24789
23585 24937
23585 23839
23585 20922
23585 22604
23585 19628
23585 21267
23585 21965
23585 23832
23585 21276
23585 24450
23585 20376
23585 21275
23585 20266
23585 25061
23585 22102
23585 23513
23585 22294
23585 23534
23832 22839
19738 22839
20160 22839
21469 22839
24380 22839
25869 22839
21234 22839
21829 22839
21498 22839
25673 22839
20387 22839
24717 22839
22184 22839
21513 22839
21424 22839
21353 22839
25647 22839
20415 22839
22294 22839
21614 22839
25711 22839
20921 22839
21901 22839
21824 22839
25595 22839
24631 22839
21142 22839
25478 22839
22773 22839
20867 22839
21220 22839
20874 22839
24255 22839
21102 22839
20852 22839
25110 22839
24976 22839
22204 22839
19548 22839
23151 22839
22486 22839
20164 22839
20283 22839
23993 22839
20402 22839
23275 22839
22400 22839
20228 22839
23452 22839
20550 22839
23780 22839
21229 22839
19692 22839
23297 22839
22895 22839
25021 22839
21119 22839
21137 22839
21946 22839
21275 22839
24010 22839
20354 22839
22073 22839
23465 22839
21123 22839
19802 22839
21892 22839
23291 22839
25142 22839
21656 22839
23615 22839
23049 22839
24405 22839
22461 22839
19766 22839
23870 22839
24326 22839
23640 22839
19757 22839
23480 22839
20644 22839
22148 22839
21468 22839
19613 22839
20684 22839
21076 22839
19798 22839
23753 22839
19560 22839
19755 22839
21446 22839
20343 22839
24037 22839
25725 22839
21364 22839
23677 22839
22859 22839
25323 22839
20988 22839
20031 22839
19923 22839
20916 22839
21010 22839
20014 22839
24529 22839
23358 22839
25027 22839
21756 22839
25736 22839
21559 22839
20417 22839
25367 22839
23011 22839
20795 22839
19922 22839
22498 22839
21995 22839
20766 22839
21920 22839
20895 22839
23299 22839
22629 22839
23360 22839
19556 22839
21290 22839
24414 22839
20961 22839
21713 22839
24047 22839
21561 22839
22331 22839
21825 22839
25046 22839
19768 22839
19491 22839
20674 22839
24512 22839
21554 22839
19559 23620
19559 23218
19559 25013
19559 23352
19559 23632
19559 22257
19559 25420
19559 25239
19559 22747
19559 23659
19559 25166
19559 23444
19559 25727
19559 23437
19559 22975
19559 23800
19559 24237
19559 23761
19559 22919
19559 23852
19559 25725
19559 23542
19559 25457
19559 25161
19559 22788
19559 22899
19559 23812
19559 24716
19559 21971
19559 23375
19559 20652
19559 25086
19559 24002
19559 25041
19559 22927
19559 23176
19559 25810
19559 24771
19559 25114
19559 25754
19559 23523
19559 24517
19559 25705
19559 25774
19559 23516
19559 22594
19559 24139
19559 21993
19559 24573
19559 22532
19559 24756
19559 24186
19559 22637
19559 23494
19559 24309
19559 25894
19559 24671
19559 22466
19559 23890
19559 24297
19559 26078
19559 23091
19559 24288
19559 22528
19559 24607
19559 24250
19559 24695
19559 25885
19559 22933
19559 26014
19559 24718
19559 26097
19559 23246
19559 22830
19559 24836
19559 24023
19559 22600
19559 22658
19559 24378
19559 23241
19559 24802
19559 23154
19559 26083
19559 22776
19559 20252
19559 22636
19559 21228
19559 24728
19559 22888
19559 24243
19559 23317
19559 24241
19559 20555
19559 23303
19559 24507
19559 23654
19559 25237
19559 24830
19559 23078
19559 22829
19559 25923
19559 21349
19559 24402
19559 23153
19559 23778
19559 22911
19559 23193
19559 22666
19559 22839
19559 25598
19559 23961
19559 24888
19559 23099
19559 21450
19559 20500
19559 20322
19559 23664
19559 21015
19559 22650
19559 23733
19559 23953
19559 24484
19559 23663
19559 24412
19559 25608
19559 24610
19559 23936
19559 23836
19559 24577
21901 23234
21770 23234
20932 23234
20062 23234
20055 23234
20819 23234
21529 23234
21104 23234
20415 23234
23261 23234
24837 23234
19802 23234
23151 23234
21733 23234
22854 23234
22424 23234
20804 23234
22859 23234
20082 23234
20164 23234
21895 23234
22577 23234
22985 23234
20874 23234
21791 23234
22148 23234
21112 23234
20167 23234
20550 23234
21680 23234
20387 23234
22758 23234
23044 23234
19647 23234
20140 23234
21189 23234
20900 23234
22249 23234
19768 23234
19868 23234
22775 23234
19560 23234
19649 23234
21491 23234
20644 23234
19683 23234
22132 23234
19618 23234
19884 23234
20173 23234
20451 23234
22436 23234
22080 23234
19630 23234
23296 23234
20730 23234
21974 23234
20343 23234
24454 23234
21137 23234
23269 23234
21102 23234
21824 23234
20916 23234
22204 23234
21042 23234
23299 23234
24255 23234
19838 23234
22400 23234
22021 23234
21227 23234
21801 23234
21244 23234
20283 23234
19486 23234
20350 23234
19877 23234
20242 23234
23612 23234
20358 23234
21238 23234
19922 23234
20447 23234
21332 23234
21115 23234
21876 23234
19931 23234
21539 23234
20186 23234
23640 23234
20921 23234
23449 23234
24553 23234
19556 23234
21614 23234
21945 23234
20799 23234
19648 23234
24923 23234
19843 23234
22031 23234
21376 23234
22626 23234
21840 23234
22652 23234
20658 23234
20351 23234
22773 23234
20988 23234
22085 23234
20417 23234
21498 23234
23011 23234
21484 23234
23297 23234
21295 23234
20332 23234
19930 23234
20598 23234
21638 23234
19602 23234
22566 23234
23891 21901
23891 21548
23891 21945
23891 21115
23891 21238
23891 23324
23891 20305
23891 23148
23891 22970
23891 21246
23891 24026
23891 22214
23891 22424
23891 21180
23891 23297
23891 21825
23891 21305
23891 21382
23891 19812
23891 19839
23891 20785
23891 21229
23891 20988
23891 23615
23891 23275
23891 23943
23891 23049
23891 22023
23891 22118
23891 23296
23891 21576
23891 23043
23891 21459
23891 21119
23891 20135
23891 22128
23891 24608
23891 20196
23891 20352
23891 25018
23891 22943
23891 19548
23891 21154
23891 21570
23891 23993
23891 21629
23891 22067
23891 21554
23891 21394
23891 22653
23891 19618
23891 22775
23891 19605
23891 20550
23891 23818
23891 20483
23891 20983
23891 19749
23891 20945
23891 20371
23891 22962
23891 23706
23891 20018
23891 23832
23891 19923
23891 20372
23891 21332
23891 19873
23891 23057
23891 20016
23891 21824
23891 21781
23891 19717
23891 21681
23891 20961
23891 19628
23891 23677
23891 22628
23891 20795
23891 22294
23891 21770
23891 21995
23891 21234
23891 23753
23891 22657
23891 20025
23891 23669
23891 21966
23891 21366
23891 20014
23891 21645
23891 23623
23891 22031
23891 21298
23891 20625
23891 22963
23891 21978
23891 24542
23891 22157
23891 20812
23891 23732
23891 23616
23891 19701
23891 21829
23891 23372
23891 23261
23891 21589
23891 24178
23891 20171
23891 19868
23891 22938
23891 23465
23891 23361
23891 19803
23891 21590
23891 19969
23891 23841
23891 20709
23891 21946
23891 21413
23891 22024
23891 22559
23891 20552
23891 19809
23891 21316
23891 23949
23891 23011
23891 20509
23891 23534
23891 23358
23891 20296
23891 21465
23891 24368
23891 23624
23891 23331
23891 21364
23891 23995
23891 19979
23891 21331
23891 24008
24412 20171
24412 21112
24412 21364
24412 22085
24412 20754
24412 25047
24412 25890
24412 21404
24412 22657
24412 21869
24412 22042
24412 19529
24412 24740
24412 20501
24412 23324
24412 21067
24412 23982
24412 21267
24412 23034
24412 21138
24412 22086
24412 19874
24412 23470
24412 21354
24412 23745
24412 21901
24412 21680
24412 21607
24412 24220
24412 19812
24412 22577
24412 23730
24412 19756
24412 22275
24412 24255
24412 20922
24412 21609
24412 21459
24412 19543
24412 24160
24412 20129
24412 21560
24412 23205
24412 20566
24412 21240
24412 21031
24412 23313
24412 21397
24412 23726
24412 21276
24412 19540
24412 22962
24412 19839
24412 19475
24412 20749
24412 24553
24412 21448
24412 21302
24412 21600
24412 20324
24412 20116
24412 24111
24412 23534
24412 22260
24412 22938
24412 20515
24412 21104
24412 20313
24412 24625
24412 19829
24412 19637
24412 23623
24412 23465
24412 20018
24412 22184
24412 22294
24412 23839
24412 20709
24412 22031
24412 21305
24412 19641
24412 21412
24412 19721
24412 21119
24412 20870
24412 20061
24412 21663
24412 21610
24412 20154
24412 23460
24412 19869
24412 23161
24412 24409
24412 19835
24412 20329
24412 23069
24412 23275
24412 24638
24412 21476
24412 21160
24412 20332
24412 24032
24412 19489
24412 19527
24412 22132
24412 23758
24412 21465
24412 21096
24412 25593
24412 20812
24412 20616
24412 19677
24412 25110
24412 22146
24412 19957
24412 25508
24412 21547
24412 19710
24412 21394
24412 21564
24412 22253
24412 19649
24412 20545
24412 19801
24412 24008
24412 21995
24412 20283
24412 20983
24412 24224
24412 19782
24412 19844
24412 23092
24412 23003
24412 20138
24412 24188
24412 21009
24412 22189
24412 21428
24412 22021
24412 20483
24412 21220
24412 22436
24412 20682
24412 24247
24412 20272
24412 24645
24412 21024
24412 24096
24412 22549
24412 21956
20643 23585
22985 23585
25229 23585
23287 23585
23995 23585
19812 23585
24909 23585
24831 23585
19489 23585
20597 23585
23837 23585
22629 23585
20306 23585
24037 23585
19900 23585
19534 23585
19556 23585
23983 23585
23049 23585
22204 23585
24322 23585
23044 23585
24586 23585
20795 23585
23092 23585
23753 23585
20307 23585
19630 23585
20321 23585
19606 23585
22773 23585
21829 23585
24345 23585
24449 23585
19548 23585
23275 23585
24809 23585
23261 23585
23732 23585
22253 23585
22052 23585
21316 23585
25110 23585
20692 23585
20998 23585
24702 23585
22559 23585
21067 23585
21892 23585
20417 23585
21172 23585
21189 23585
20423 23585
21967 23585
23057 23585
24326 23585
22082 23585
24282 23585
22189 23585
20730 23585
23151 23585
20665 23585
21115 23585
23593 23585
24314 23585
20768 23585
24887 23585
20164 23585
20895 23585
21781 23585
19755 23585
19930 23585
20140 23585
23299 23585
24969 23585
21740 23585
23361 23585
23612 23585
21302 23585
24495 23585
19710 23585
21298 23585
19491 23585
24645 23585
24355 23585
20833 23585
23087 23585
20203 23585
24512 23585
21513 23585
21187 23585
21560 23585
19923 23585
20358 23585
20451 23585
25122 23585
20025 23585
24596 23585
23768 23585
20689 23585
21240 23585
24711 23585
21246 23585
24692 23585
19757 23585
21761 23585
20272 23585
21073 23585
20429 23585
25402 23585
24047 23585
24550 23585
24178 23585
19717 23585
23677 23585
19901 23585
25260 23585
23656 23585
20968 23585
24677 23585
24837 23585
24405 23585
22859 23585
24290 23585
21392 23585
21669 23585
24420 23585
20536 23585
20688 23585
22077 23585
22184 23585
24063 23585
21559 23585
23052 23585
22086 23585
21238 23585
22918 23585
22261 23585
21945 23585
21778 23585
23166 23585
24275 23585
21305 23585
21122 23585
25180 23585
24632 23585
24836 24450
24836 20730
24836 22253
24836 20493
24836 21238
24836 20570
24836 19877
24836 20706
24836 19710
24836 23034
24836 24800
24836 22436
24836 23340
24836 20552
24836 21576
24836 23097
24836 19701
24836 21835
24836 20137
24836 23669
24836 21119
24836 20789
24836 23549
24836 21610
24836 21137
24836 23611
24836 21901
24836 21298
24836 20812
24836 23612
24836 19738
24836 22663
24836 20536
24836 20786
24836 21229
24836 23991
24836 21700
24836 20371
24836 22553
24836 20402
24836 24789
24836 20126
24836 22261
24836 24495
24836 21104
24836 22683
24836 19901
24836 20069
24836 23706
24836 21515
24836 20332
24836 19923
24836 22228
24836 24911
24836 21998
24836 24171
24836 22086
24836 21354
24836 23461
24836 19490
24836 22938
24836 23799
24836 20196
24836 19657
24836 19543
24836 20550
24836 19722
24836 24008
24836 24738
24836 24274
24836 21974
24836 22184
24836 19606
24836 20509
24836 21138
24836 20451
24836 24758
24836 19689
24836 23841
24836 24638
24836 23993
24836 24367
24836 21895
24836 21394
24836 23818
24836 22136
24836 21127
24836 24032
24836 20016
24836 24625
24836 23593
24836 24584
24836 24806
24836 24326
24836 19756
24836 20195
24836 21883
24836 24400
24836 20744
24836 24454
24836 23615
24836 24631
24836 22085
24836 23602
24836 24608
24836 23168
24836 20988
24836 21490
24836 20729
24836 23449
24836 21459
24836 21005
24836 22148
24836 22044
24836 21740
24836 19778
24836 24775
24836 19892
24836 21995
24836 25759
24836 19677
24836 20194
24836 22962
24836 21934
24836 21112
24836 25565
24836 20246
24836 20968
24836 24322
24836 20116
24836 21413
24836 20689
24836 21316
24836 22373
24836 22775
24836 23911
24836 19540
24836 20283
24836 21468
24836 23297
24836 25976
24836 21825
24836 20870
24836 23291
24836 20529
24836 20754
24836 23656
24836 20867
24836 23296
24836 19927
24836 22034
19770 26149
19770 25608
19770 25909
19770 24243
19770 22874
19770 22888
19770 26114
19770 25449
19770 25625
19770 23798
19770 24517
19770 22345
19770 24290
19770 24592
19770 24840
19770 23179
19770 22485
19770 22861
19770 20652
19770 25015
19770 25894
19770 25237
19770 24161
19770 25469
19770 25114
19770 23194
19770 22011
19770 24057
19770 22501
19770 23903
19770 22535
19770 23078
19770 23669
19770 23585
19770 24277
19770 22546
19770 22919
19770 25468
19770 23255
19770 25390
19770 22666
19770 23541
19770 24003
19770 23045
19770 23666
19770 22957
19770 24402
19770 25753
19770 24157
19770 24192
19770 24937
19770 22185
19770 24791
19770 24225
19770 23536
19770 25493
19770 22829
19770 25461
19770 25070
19770 24412
19770 25251
19770 22857
19770 23859
19770 23579
19770 22975
19770 22788
19770 23429
19770 26092
19770 23352
19770 22100
19770 22922
19770 24762
19770 26020
19770 24577
19770 21062
19770 24183
19770 22839
19770 23646
19770 25017
19770 23869
19770 24023
19770 21993
19770 25800
19770 25161
19770 23154
19770 23293
19770 24795
19770 25362
19770 23837
19770 23099
19770 25223
19770 22600
19770 19904
19770 21827
19770 24906
19770 23172
19770 23171
19770 24756
19770 23143
19770 23234
19770 24507
19770 19611
19770 23360
19770 23479
19770 23523
19770 22795
19770 23802
19770 24462
19770 24139
19770 23176
19770 23472
19770 23852
19770 22524
19770 24025
19770 20322
19770 23494
19770 24574
19770 23153
19770 23620
19770 23638
19770 23800
19770 24237
19770 23793
19770 24421
19770 24984
19770 24772
19770 23250
19770 22511
19770 24311
19770 22747
19770 24836
19770 19913
19770 23680
19770 25086
19770 20252
19770 22430
19770 24569
19770 22658
19770 24362
19770 25848
19770 23891
19770 24072
19770 25283
19770 23218
19770 23788
19770 24997
19770 24302
19770 23017
19770 23188
19770 22358
19770 22776
19770 23936
19770 22650
19770 23126
19770 24002
19770 23812
19770 22990
19770 23193
19770 22687
19770 20264
19770 24802
24296 24464
24420 24464
22577 24464
20895 24464
25088 24464
24550 24464
23087 24464
24632 24464
25459 24464
24814 24464
24047 24464
23188 24464
21705 24464
23995 24464
22077 24464
25156 24464
20921 24464
24608 24464
23092 24464
23010 24464
21859 24464
20965 24464
25725 24464
25736 24464
25712 24464
23848 24464
22758 24464
21829 24464
20031 24464
22791 24464
23753 24464
21316 24464
23452 24464
25751 24464
25128 24464
19534 24464
25630 24464
21098 24464
20689 24464
23612 24464
21315 24464
20730 24464
21589 24464
21187 24464
24037 24464
20343 24464
21298 24464
20332 24464
23049 24464
23261 24464
20062 24464
24677 24464
20351 24464
21305 24464
19652 24464
22859 24464
25723 24464
21996 24464
21112 24464
24290 24464
23578 24464
19638 24464
22773 24464
21586 24464
19527 24464
21172 24464
25728 24464
19979 24464
20140 24464
19795 24464
25959 24464
20833 24464
20025 24464
24806 24464
21389 24464
20688 24464
23457 24464
21560 24464
19717 24464
24855 24464
19491 24464
25372 24464
25367 24464
22423 24464
24033 24464
19998 24464
25880 24464
21609 24464
19642 24464
24512 24464
22275 24464
22160 24464
22348 24464
20483 24464
19930 24464
19791 24464
22985 24464
24367 24464
20988 24464
25974 24464
19901 24464
23299 24464
22189 24464
20107 24464
24831 24464
22629 24464
24586 24464
24909 24464
21945 24464
19708 24464
23151 24464
22046 24464
22918 24464
24178 24464
20692 24464
21966 24464
24790 24464
25213 24464
23460 24464
19755 24464
21067 24464
21129 24464
22498 24464
19657 24464
20467 24464
24717 24464
21442 24464
23623 24464
22249 24464
25508 24464
21071 24464
21332 24464
20358 24464
20228 24464
20307 24464
21295 24464
22559 24464
20417 24464
19548 24464
24355 24464
24422 24464
23768 24464
19844 24464
23820 24464
22106 24464
23361 24464
19489 24464
21246 24464
21037 24464
19545 24464
21076 24464
22331 24464
20429 24464
23593 24464
25932 24464
23166 24464
21302 24464
19606 24464
22775 24464
19785 24464
23677 24464
23161 24464
25831 24464
24188 24464
20194 24464
24495 24464
26076 24464
25160 24464
22196 24464
24969 24464
25722 24464
20993 24464
25280 24464
21549 24464
23795 24464
20324 24464
21924 24464
22086 24464
25503 24464
23983 24464
25650 24464
24282 24464
19914 24464
24711 24464
20470 24464
21990 24464
21892 24464
25116 24464
25297 24464
23205 24464
19830 24464
20916 24464
21800 24464
22450 24464
19958 24464
20368 24464
21781 24464
19757 24464
25075 24464
20795 24464
24935 24464
23314 24464
21638 24464
24903 24464
21024 24464
23615 24464
24290 25274
19900 25274
20467 25274
23593 25274
19624 25274
25074 25274
21172 25274
21597 25274
25260 25274
21756 25274
23612 25274
21298 25274
25119 25274
23993 25274
22193 25274
23269 25274
21700 25274
25018 25274
21067 25274
23640 25274
24322 25274
21302 25274
23768 25274
21549 25274
25174 25274
24938 25274
21515 25274
20873 25274
19722 25274
19770 25274
21966 25274
23151 25274
20945 25274
22052 25274
21800 25274
21134 25274
21154 25274
25639 25274
20922 25274
19812 25274
24717 25274
19630 25274
24420 25274
20961 25274
25738 25274
19613 25274
21469 25274
20501 25274
21576 25274
19475 25274
19914 25274
19931 25274
21892 25274
24405 25274
23166 25274
22106 25274
24586 25274
25736 25274
25959 25274
25728 25274
25725 25274
25180 25274
23358 25274
25759 25274
25278 25274
20768 25274
23299 25274
21295 25274
24266 25274
20357 25274
21873 25274
20186 25274
21539 25274
25833 25274
23780 25274
22423 25274
22758 25274
20196 25274
22566 25274
25712 25274
20307 25274
20509 25274
22553 25274
22348 25274
23753 25274
21076 25274
26076 25274
21316 25274
22400 25274
21476 25274
21690 25274
21974 25274
21073 25274
24449 25274
20283 25274
21112 25274
25188 25274
24275 25274
25088 25274
24512 25274
23087 25274
22461 25274
19771 25274
23995 25274
25503 25274
19757 25274
24887 25274
20085 25274
21740 25274
22331 25274
25831 25274
25869 25274
20545 25274
21924 25274
24645 25274
24107 25274
24550 25274
19652 25274
22275 25274
21244 25274
19534 25274
21225 25274
23287 25274
21713 25274
21240 25274
25402 25274
24253 25274
23324 25274
19749 25274
20536 25274
24953 25274
25932 25274
24326 25274
22189 25274
21229 25274
21830 25274
21901 25274
22261 25274
21945 25274
23656 25274
24282 25274
19637 25274
19527 25274
24790 25274
24037 25274
24702 25274
25711 25274
20354 25274
19791 25274
20684 25274
21995 25274
19489 25274
24976 25274
25905 25274
20429 25274
24923 25274
24752 25274
21446 25274
22204 25274
24032 25274
20203 25274
23361 25274
21318 25274
20415 25274
20135 25274
24793 25274
23820 25274
19540 25274
20998 25274
23205 25274
22086 25274
21042 25274
20324 25274
21002 25274
21778 25274
20916 25274
19683 25274
24909 25274
21513 25274
25299 25274
25122 25274
25297 25274
20689 25274
20665 25274
19979 25274
22031 23865
21137 23865
24228 23865
20799 23865
21873 23865
25180 23865
24345 23865
24405 23865
25687 23865
22647 23865
20998 23865
24233 23865
23669 23865
25478 23865
20010 23865
20893 23865
25833 23865
21318 23865
21566 23865
23949 23865
21240 23865
24454 23865
23795 23865
24422 23865
22663 23865
21995 23865
19771 23865
21363 23865
23324 23865
21298 23865
23010 23865
19824 23865
20321 23865
21970 23865
23460 23865
19583 23865
23085 23865
20429 23865
21826 23865
21234 23865
21204 23865
19654 23865
24529 23865
21990 23865
24111 23865
20447 23865
21895 23865
21042 23865
21892 23865
20598 23865
21806 23865
25106 23865
22223 23865
24322 23865
24224 23865
24449 23865
24438 23865
25695 23865
20550 23865
21842 23865
20283 23865
23044 23865
23069 23865
23092 23865
20203 23865
20900 23865
19812 23865
21600 23865
20832 23865
19648 23865
19559 23865
19768 23865
20266 23865
22073 23865
22190 23865
19527 23865
24107 23865
25280 23865
21638 23865
20874 23865
22773 23865
20343 23865
20974 23865
23151 23865
24586 23865
20968 23865
21589 23865
22791 23865
24938 23865
23457 23865
21733 23865
21973 23865
19647 23865
21315 23865
20833 23865
23911 23865
20286 23865
24702 23865
20196 23865
24692 23865
24631 23865
23049 23865
23148 23865
21781 23865
19513 23865
23623 23865
20451 23865
24545 23865
21024 23865
19766 23865
21316 23865
21700 23865
21966 23865
21656 23865
21901 23865
24255 23865
20467 23865
20536 23865
20873 23865
19906 23865
22086 23865
19695 23865
23743 23865
21364 23865
20834 23865
19979 23865
20766 23865
20890 23865
23057 23865
24645 23865
23726 23865
19560 23865
24010 23865
23261 23865
25464 23865
21791 23865
22652 23865
23465 23865
20988 23865
20785 23865
21824 23865
25229 23865
20720 23865
25264 23865
23820 23865
22184 23865
20332 23865
21876 23865
25137 23865
23838 23865
20945 23865
24850 23865
20493 23865
20818 23865
20958 23865
20819 23865
21446 23865
19512 23865
23358 23865
23818 23865
24935 23865
25074 23865
21404 23865
20054 23865
22918 23865
21076 23865
21629 23865
24290 23865
21305 23865
23559 23865
19710 23865
19803 23865
25188 23865
20688 23865
24596 23865
19722 23865
23745 23865
19998 23865
20596 23865
19770 23865
25402 23865
25406 23865
24536 23865
25759 23865
24512 23865
24550 23865
23837 23865
21590 23865
19683 23865
23188 23865
23298 23865
25630 23865
23848 23865
25776 23865
19738 23865
24026 23865
21071 23865
21554 23865
21801 23865
19548 23865
22261 23865
23452 23865
25260 23865
20909 23865
22249 23865
23166 23865
20005 23865
25094 23865
20754 23865
23995 23865
21491 23865
22085 23865
22080 23865
24800 23865
19877 23865
21476 23865
24542 23865
20961 23865
21891 23865
23011 23865
20692 23865
21469 23865
21680 23865
21119 23865
24464 20983
24464 19682
24464 20812
24464 21451
24464 21584
24464 22963
24464 25270
24464 23372
24464 24758
24464 25103
24464 23838
24464 19798
24464 21981
24464 22102
24464 23047
24464 24793
24464 23559
24464 20126
24464 25073
24464 19578
24464 20154
24464 19782
24464 22653
24464 24638
24464 19839
24464 21488
24464 19651
24464 22943
24464 22095
24464 21465
24464 22048
24464 24789
24464 25273
24464 21766
24464 23745
24464 19753
24464 20272
24464 21440
24464 22340
24464 20371
24464 25299
24464 24680
24464 23839
24464 22128
24464 20227
24464 20811
24464 21267
24464 19693
24464 25614
24464 25061
24464 22663
24464 26137
24464 24026
24464 21160
24464 21463
24464 25491
24464 21381
24464 19473
24464 25243
24464 21656
24464 20995
24464 23602
24464 25923
24464 21412
24464 25264
24464 21514
24464 25929
24464 23758
24464 21180
24464 20291
24464 19840
24464 23594
24464 26025
24464 20509
24464 19673
24464 25709
24464 22921
24464 23773
24464 24428
24464 23043
24464 25641
24464 19835
24464 22214
24464 25738
24464 23799
24464 22938
24464 24450
24464 23982
24464 20354
24464 19628
24464 23669
24464 21576
24464 20195
24464 23949
24464 21538
24464 19812
24464 22067
24464 23832
24464 21123
24464 24762
24464 20709
24464 20687
24464 26030
24464 23859
24464 20900
24464 21978
24464 21995
24464 19900
24464 22148
24464 25138
24464 24741
24464 23360
24464 21262
24464 20922
24464 20625
24464 24567
24464 21734
24464 19722
24464 20010
24464 23762
24464 22560
24464 20137
24464 21010
24464 19829
24464 25046
24464 25890
24464 20313
24464 25565
24464 21842
24464 21229
24464 20160
24464 24795
24464 19695
24464 25849
24464 21078
24464 24887
24464 20715
24464 24179
24464 21594
24464 25208
24464 21946
24464 21494
24464 19884
24464 25174
24464 21382
24464 21313
24464 23377
24464 22549
24464 20607
24464 23513
24464 19982
24464 20945
24464 24158
24464 21354
24464 19543
24464 23331
24464 23911
24464 21600
24464 23991
24464 19996
24464 25867
24464 25975
24464 21031
24464 20545
24464 21741
24464 25776
24464 23340
24464 23549
24464 21504
24464 26117
24464 24052
24464 22023
24464 20296
24464 20891
24464 19647
24464 20329
24464 24238
24464 24911
24464 20550
24464 24763
24464 23866
24464 23003
24464 22167
24464 20372
24464 21568
24464 22563
24464 23943
24464 20931
24464 24529
24464 19701
24464 25120
24464 23857
24464 21404
24464 24380
24464 21956
24464 19608
24464 24217
24464 19801
24464 23844
24464 25339
24464 20958
24464 25182
24464 23706
24464 23297
24464 23616
24464 23069
24464 21366
24464 21770
24464 23534
24464 20018
24464 20690
24464 20266
24464 19739
24464 24481
24464 20785
24464 24596
24464 23324
24464 21632
24464 23461
24464 25106
24464 20387
24464 23449
24464 25771
24464 25747
24464 21216
24464 21275
19513 23263
24632 23263
21565 23263
24351 23263
20417 23263
21670 23263
22021 23263
24380 23263
20164 23263
20356 23263
19649 23263
24160 23263
23340 23263
21770 23263
21134 23263
23069 23263
22014 23263
20055 23263
21413 23263
26179 23263
20823 23263
22148 23263
19982 23263
21559 23263
19654 23263
24220 23263
20010 23263
21842 23263
23275 23263
20730 23263
23446 23263
19657 23263
22110 23263
20834 23263
23762 23263
24257 23263
24133 23263
19874 23263
22128 23263
20865 23263
21262 23263
19770 23263
20354 23263
24096 23263
24178 23263
23593 23263
22772 23263
23611 23263
22282 23263
22082 23263
20023 23263
24645 23263
20786 23263
19677 23263
23358 23263
21295 23263
22458 23263
20182 23263
21684 23263
21891 23263
21547 23263
20423 23263
19957 23263
23331 23263
21778 23263
24326 23263
24463 23263
22294 23263
20832 23263
22657 23263
19602 23263
21756 23263
20857 23263
22400 23263
20387 23263
22348 23263
20916 23263
23261 23263
24976 23263
24238 23263
20186 23263
19693 23263
23870 23263
21835 23263
20674 23263
19778 23263
21332 23263
21946 23263
22554 23263
19708 23263
21442 23263
20154 23263
20324 23263
23297 23263
22563 23263
19816 23263
22117 23263
19931 23263
23205 23263
20299 23263
21465 23263
22962 23263
19613 23263
21995 23263
22190 23263
23087 23263
22775 23263
19930 23263
22275 23263
23841 23263
21824 23263
19900 23263
22498 23263
21549 23263
21830 23263
22073 23263
21154 23263
19606 23263
22577 23263
20321 23263
20357 23263
22198 23263
19949 23263
23299 23263
25595 23263
19651 23263
21188 23263
21363 23263
21560 23263
22461 23263
21076 23263
21229 23263
21172 23263
24519 23263
20616 23263
22106 23263
25088 23263
20550 23263
20873 23263
22938 23263
21614 23263
22023 23263
20499 23263
21638 23263
19998 23263
20931 23263
22970 23263
23097 23263
24107 23263
20692 23263
20064 23263
24405 23263
19838 23263
20135 23263
20958 23263
21892 23263
22157 23263
21538 23263
24550 23263
20082 23263
19795 23263
20171 23263
20689 23263
19877 23263
21305 23263
20014 23263
20968 23263
22379 23263
21797 23263
19771 23263
20895 23263
21494 23263
19868 23263
21180 23263
23057 23263
20496 23263
21448 23263
21428 23263
23732 23263
20054 23263
20140 23263
20812 23263
23594 23263
23074 23263
20313 23263
21313 23263
22854 23263
23871 23263
21747 23263
19534 23263
20715 23263
22331 23263
24553 23263
20785 23263
21010 23263
20246 23263
19914 23263
21605 23263
20484 23263
20891 23263
19869 23263
24355 23263
20643 23263
21397 23263
20376 23263
19884 23263
21031 23263
20296 23263
20688 23263
21498 23263
23386 23263
20340 23263
21298 23263
22041 23263
21446 23263
21590 23263
21468 23263
19960 23263
21840 23263
19927 23263
21859 23263
20820 23263
21781 23263
19548 23263
20536 23263
23983 23263
21227 23263
21024 23263
21042 23263
20922 23263
22116 23263
21973 23263
21067 23263
21735 23263
20789 23263
19803 23263
20305 23263
21876 23263
20371 23263
22034 23263
19540 23263
23837 23263
23360 23263
23394 23263
22146 23263
21290 23263
21392 23263
21318 23263
20493 23263
21998 23263
20608 23263
22773 23263
21733 23263
23677 23263
20231 23263
21240 23263
23461 23263
23744 23263
21978 23263
20230 23263
21645 23263
22115 23263
21404 23263
20107 23263
21801 23263
21115 23263
21469 23263
23324 23263
19473 23263
23452 23263
23090 23263
20921 23263
24529 23263
21539 23263
19843 23263
24032 23263
21576 23263
21427 23263
21011 23263
20116 23263
22450 23263
20961 23263
21731 23263
20965 23263
23296 23263
20993 23263
21491 23263
21112 23263
22859 23263
24702 23263
19906 23263
20196 23263
20932 23263
21632 23263
21791 23263
20329 23263
23612 23263
21609 23263
24631 23263
22113 23263
20768 23263
24449 23263
22204 23263
23011 23263
21669 23263
22196 23263
20682 23263
21901 23263
20195 23263
23866 23263
21331 23263
21424 23263
23047 23263
23616 23263
23559 23263
20025 23263
21740 23263
23010 23263
19922 23263
19489 23263
21275 23263
24275 23263
21001 23263
23818 23263
21267 23263
20173 23263
21761 23263
20159 23263
19710 23263
23566 23263
19798 23263
23148 23263
21970 23263
20729 23263
21394 23263
23151 23263
19755 23263
20066 23263
19997 23263
20137 23263
20804 23263
22424 23263
19512 23263
25380 23263
23361 23263
20995 23263
21376 23263
20876 23263
23399 23263
19638 23263
22604 23263
23634 23263
23995 23263
24037 23263
20598 23263
24063 23263
23768 23263
21216 23263
22663 23263
22261 23263
24296 23263
19695 23263
21934 23263
19738 23263
24545 23263
19763 23263
19757 23263
19856 23263
22189 23263
21234 23263
22067 23263
23092 23263
23044 23263
24322 23263
22583 23263
23049 23263
21470 23263
20451 23263
21196 23263
22918 23263
20283 23263
20018 23263
19505 23263
25018 23263
22423 23263
21826 23263
25021 23263
21705 23263
21002 23263
20303 23263
24504 23263
24450 23263
19558 23263
24026 23263
20709 23263
21513 23263
22652 23263
20766 23263
20596 23263